# vtk DataFile Version 2.0
geometrically linear steady-state plane stress analysis
ASCII

DATASET UNSTRUCTURED_GRID
POINTS 4063 double
  0.000000  5.000000  0.000000
  0.025170  4.999940  0.000000
  0.000000  4.974030  0.000000
  0.031040  4.972680  0.000000
  0.050350  4.999750  0.000000
  0.000000  4.946470  0.000000
  0.059020  4.976890  0.000000
  0.075520  4.999430  0.000000
  0.050570  4.939530  0.000000
  0.000000  4.917280  0.000000
  0.087640  4.973070  0.000000
  0.100690  4.998990  0.000000
  0.032070  4.901840  0.000000
  0.000000  4.886400  0.000000
  0.112560  4.976290  0.000000
  0.125850  4.998420  0.000000
  0.111030  4.940090  0.000000
  0.028810  4.873400  0.000000
  0.076210  4.888440  0.000000
  0.137710  4.971930  0.000000
  0.000000  4.853770  0.000000
  0.151020  4.997720  0.000000
  0.163550  4.974870  0.000000
  0.035760  4.836550  0.000000
  0.176170  4.996900  0.000000
  0.165090  4.937500  0.000000
  0.000000  4.819340  0.000000
  0.147400  4.893840  0.000000
  0.118600  4.853000  0.000000
  0.187770  4.970300  0.000000
  0.079960  4.821230  0.000000
  0.031080  4.804820  0.000000
  0.201330  4.995940  0.000000
  0.000000  4.783050  0.000000
  0.215390  4.972080  0.000000
  0.197020  4.888900  0.000000
  0.168380  4.848600  0.000000
  0.226480  4.994870  0.000000
  0.223170  4.939890  0.000000
  0.235900  4.973480  0.000000
  0.039660  4.763950  0.000000
  0.134000  4.794190  0.000000
  0.251620  4.993660  0.000000
  0.000000  4.744860  0.000000
  0.084860  4.756400  0.000000
  0.262810  4.966890  0.000000
  0.217740  4.845930  0.000000
  0.246230  4.886670  0.000000
  0.190720  4.804030  0.000000
  0.276760  4.992330  0.000000
  0.041670  4.724800  0.000000
  0.272200  4.928750  0.000000
  0.287810  4.965510  0.000000
  0.168380  4.757620  0.000000
  0.000000  4.704740  0.000000
  0.128090  4.728250  0.000000
  0.301890  4.990880  0.000000
  0.085750  4.705970  0.000000
  0.267340  4.842630  0.000000
  0.239660  4.801070  0.000000
  0.314450  4.967530  0.000000
  0.295420  4.883940  0.000000
  0.043300  4.683690  0.000000
  0.212580  4.759330  0.000000
  0.317730  4.929620  0.000000
  0.327020  4.989290  0.000000
  0.000000  4.662650  0.000000
  0.337800  4.962360  0.000000
  0.179230  4.709720  0.000000
  0.127090  4.678790  0.000000
  0.352130  4.987580  0.000000
  0.289540  4.797840  0.000000
  0.084640  4.656480  0.000000
  0.317170  4.839120  0.000000
  0.262450  4.756630  0.000000
  0.043300  4.640610  0.000000
  0.344590  4.880720  0.000000
  0.365020  4.963930  0.000000
  0.235170  4.714740  0.000000
  0.377240  4.985750  0.000000
  0.000000  4.618570  0.000000
  0.378230  4.931920  0.000000
  0.169700  4.652690  0.000000
  0.385500  4.961800  0.000000
  0.213580  4.676640  0.000000
  0.125130  4.627720  0.000000
  0.339430  4.795320  0.000000
  0.312170  4.753450  0.000000
  0.079500  4.608120  0.000000
  0.367040  4.836090  0.000000
  0.402330  4.983790  0.000000
  0.033220  4.597640  0.000000
  0.284540  4.711830  0.000000
  0.412710  4.956690  0.000000
  0.000000  4.572480  0.000000
  0.427420  4.981700  0.000000
  0.212380  4.626650  0.000000
  0.165280  4.597960  0.000000
  0.254550  4.646800  0.000000
  0.417580  4.875370  0.000000
  0.119400  4.578130  0.000000
  0.439590  4.959630  0.000000
  0.053160  4.557040  0.000000
  0.444910  4.924900  0.000000
  0.363470  4.730440  0.000000
  0.452490  4.979480  0.000000
  0.395210  4.773250  0.000000
  0.460390  4.955410  0.000000
  0.335340  4.678640  0.000000
  0.437800  4.830200  0.000000
  0.304030  4.639730  0.000000
  0.000000  4.524390  0.000000
  0.193560  4.564220  0.000000
  0.477560  4.977140  0.000000
  0.273210  4.600430  0.000000
  0.467330  4.870500  0.000000
  0.487520  4.949890  0.000000
  0.097340  4.518230  0.000000
  0.042640  4.500270  0.000000
  0.162470  4.525080  0.000000
  0.502610  4.974670  0.000000
  0.383790  4.671460  0.000000
  0.414880  4.710550  0.000000
  0.243410  4.556490  0.000000
  0.353190  4.631990  0.000000
  0.503710  4.914600  0.000000
  0.446200  4.749490  0.000000
  0.511770  4.951200  0.000000
  0.487480  4.824940  0.000000
  0.322680  4.593590  0.000000
  0.477040  4.788920  0.000000
  0.000000  4.474390  0.000000
  0.211870  4.517710  0.000000
  0.527650  4.972080  0.000000
  0.291550  4.554480  0.000000
  0.131260  4.483600  0.000000
  0.084990  4.473890  0.000000
  0.516340  4.865540  0.000000
  0.537340  4.944730  0.000000
  0.433000  4.664010  0.000000
  0.402700  4.625430  0.000000
  0.464290  4.703230  0.000000
  0.043300  4.450390  0.000000
  0.180970  4.478690  0.000000
  0.552670  4.969360  0.000000
  0.261170  4.509760  0.000000
  0.372050  4.586020  0.000000
  0.495290  4.742420  0.000000
  0.562230  4.941960  0.000000
  0.537210  4.820160  0.000000
  0.559410  4.910050  0.000000
  0.340990  4.547120  0.000000
  0.526410  4.781320  0.000000
  0.000000  4.426390  0.000000
  0.229490  4.471160  0.000000
  0.577690  4.966520  0.000000
  0.159700  4.443720  0.000000
  0.112730  4.430720  0.000000
  0.310420  4.508300  0.000000
  0.587100  4.939070  0.000000
  0.451790  4.617690  0.000000
  0.482500  4.657080  0.000000
  0.421540  4.579440  0.000000
  0.513750  4.696090  0.000000
  0.033220  4.401300  0.000000
  0.201650  4.434160  0.000000
  0.279290  4.466880  0.000000
  0.390320  4.540440  0.000000
  0.602680  4.963540  0.000000
  0.544570  4.734770  0.000000
  0.589110  4.857630  0.000000
  0.079480  4.390920  0.000000
  0.359850  4.500870  0.000000
  0.614780  4.938630  0.000000
  0.575780  4.773640  0.000000
  0.000000  4.380400  0.000000
  0.165250  4.401180  0.000000
  0.250730  4.425910  0.000000
  0.620050  4.906840  0.000000
  0.627670  4.960450  0.000000
  0.328750  4.461800  0.000000
  0.501280  4.611000  0.000000
  0.606970  4.812700  0.000000
  0.470730  4.571440  0.000000
  0.531920  4.649570  0.000000
  0.635270  4.936620  0.000000
  0.125130  4.371370  0.000000
  0.439730  4.533050  0.000000
  0.043300  4.358410  0.000000
  0.563090  4.688370  0.000000
  0.408340  4.494170  0.000000
  0.219810  4.387820  0.000000
  0.300500  4.421910  0.000000
  0.593910  4.727690  0.000000
  0.652630  4.957220  0.000000
  0.638650  4.851010  0.000000
  0.084680  4.342560  0.000000
  0.000000  4.336410  0.000000
  0.378170  4.454630  0.000000
  0.661630  4.929640  0.000000
  0.625210  4.766220  0.000000
  0.268680  4.383400  0.000000
  0.187590  4.350330  0.000000
  0.519350  4.564400  0.000000
  0.550660  4.603280  0.000000
  0.677580  4.953880  0.000000
  0.347240  4.415360  0.000000
  0.488930  4.524920  0.000000
  0.581220  4.642780  0.000000
  0.675580  4.893950  0.000000
  0.656140  4.805410  0.000000
  0.043300  4.315420  0.000000
  0.457720  4.486540  0.000000
  0.685710  4.930120  0.000000
  0.612760  4.681480  0.000000
  0.127000  4.320290  0.000000
  0.237240  4.344580  0.000000
  0.427780  4.448960  0.000000
  0.643110  4.721100  0.000000
  0.317780  4.375040  0.000000
  0.702510  4.950400  0.000000
  0.687460  4.844330  0.000000
  0.000000  4.294420  0.000000
  0.396020  4.410640  0.000000
  0.085700  4.293080  0.000000
  0.711230  4.922730  0.000000
  0.674570  4.759750  0.000000
  0.568720  4.556980  0.000000
  0.538400  4.518890  0.000000
  0.598970  4.596410  0.000000
  0.286600  4.336930  0.000000
  0.170790  4.296450  0.000000
  0.506830  4.480550  0.000000
  0.207500  4.304490  0.000000
  0.041570  4.274410  0.000000
  0.630540  4.635100  0.000000
  0.727430  4.946800  0.000000
  0.367450  4.369900  0.000000
  0.723980  4.886510  0.000000
  0.705530  4.797910  0.000000
  0.477040  4.440560  0.000000
  0.660920  4.674410  0.000000
  0.735150  4.922890  0.000000
  0.128010  4.270840  0.000000
  0.445250  4.402140  0.000000
  0.000000  4.254400  0.000000
  0.257130  4.299050  0.000000
  0.335560  4.331680  0.000000
  0.692440  4.713100  0.000000
  0.083810  4.252650  0.000000
  0.736200  4.837160  0.000000
  0.752320  4.943080  0.000000
  0.413400  4.363800  0.000000
  0.618200  4.550340  0.000000
  0.587710  4.510740  0.000000
  0.723890  4.751750  0.000000
  0.760760  4.915320  0.000000
  0.039560  4.235350  0.000000
  0.556080  4.472150  0.000000
  0.648300  4.588630  0.000000
  0.524310  4.433750  0.000000
  0.306460  4.291250  0.000000
  0.678960  4.627800  0.000000
  0.225580  4.256700  0.000000
  0.168220  4.241360  0.000000
  0.767290  4.876230  0.000000
  0.384730  4.323920  0.000000
  0.777200  4.939230  0.000000
  0.494490  4.394300  0.000000
  0.754990  4.790870  0.000000
  0.000000  4.216310  0.000000
  0.710240  4.666780  0.000000
  0.122390  4.221710  0.000000
  0.785500  4.911420  0.000000
  0.462620  4.355910  0.000000
  0.352520  4.285920  0.000000
  0.275220  4.252500  0.000000
  0.741730  4.705770  0.000000
  0.784870  4.829500  0.000000
  0.802060  4.935250  0.000000
  0.031010  4.194590  0.000000
  0.635550  4.503760  0.000000
  0.431160  4.317100  0.000000
  0.666430  4.542710  0.000000
  0.605370  4.464400  0.000000
  0.197520  4.215380  0.000000
  0.072130  4.192930  0.000000
  0.573540  4.425980  0.000000
  0.697720  4.581520  0.000000
  0.773330  4.744440  0.000000
  0.812200  4.910760  0.000000
  0.542170  4.387090  0.000000
  0.000000  4.180120  0.000000
  0.324510  4.245570  0.000000
  0.728390  4.620240  0.000000
  0.811650  4.872710  0.000000
  0.162370  4.191730  0.000000
  0.247350  4.211890  0.000000
  0.401650  4.277670  0.000000
  0.511860  4.347880  0.000000
  0.826890  4.931150  0.000000
  0.759600  4.659090  0.000000
  0.804180  4.783700  0.000000
  0.116400  4.172070  0.000000
  0.035660  4.162950  0.000000
  0.834910  4.903270  0.000000
  0.480270  4.309160  0.000000
  0.296580  4.210720  0.000000
  0.374090  4.241050  0.000000
  0.791050  4.697940  0.000000
  0.653210  4.457140  0.000000
  0.684350  4.496070  0.000000
  0.833460  4.821360  0.000000
  0.622790  4.417960  0.000000
  0.715760  4.534790  0.000000
  0.000000  4.145780  0.000000
  0.851710  4.926930  0.000000
  0.451070  4.271440  0.000000
  0.221000  4.169450  0.000000
  0.746940  4.573850  0.000000
  0.821810  4.737060  0.000000
  0.862540  4.901430  0.000000
  0.777720  4.613190  0.000000
  0.345370  4.200190  0.000000
  0.531160  4.306300  0.000000
  0.028750  4.126210  0.000000
  0.570440  4.337200  0.000000
  0.270940  4.168020  0.000000
  0.420940  4.231590  0.000000
  0.607760  4.367540  0.000000
  0.867470  4.868800  0.000000
  0.876500  4.922570  0.000000
  0.809310  4.651660  0.000000
  0.853000  4.775950  0.000000
  0.000000  4.113250  0.000000
  0.189800  4.132870  0.000000
  0.883330  4.900200  0.000000
  0.499910  4.263790  0.000000
  0.076110  4.111210  0.000000
  0.702600  4.449560  0.000000
  0.312150  4.163300  0.000000
  0.733660  4.488690  0.000000
  0.388940  4.193880  0.000000
  0.840470  4.690730  0.000000
  0.765190  4.527420  0.000000
  0.881960  4.812720  0.000000
  0.031970  4.097850  0.000000
  0.129000  4.104790  0.000000
  0.901280  4.918100  0.000000
  0.468800  4.224830  0.000000
  0.795950  4.566690  0.000000
  0.869860  4.729080  0.000000
  0.689560  4.402050  0.000000
  0.237950  4.117840  0.000000
  0.908870  4.890100  0.000000
  0.826950  4.605850  0.000000
  0.577600  4.287830  0.000000
  0.000000  4.082460  0.000000
  0.616630  4.318340  0.000000
  0.539380  4.255620  0.000000
  0.360950  4.154180  0.000000
  0.654780  4.350580  0.000000
  0.437960  4.184720  0.000000
  0.858740  4.644300  0.000000
  0.926020  4.913500  0.000000
  0.901500  4.767540  0.000000
  0.922350  4.856100  0.000000
  0.286050  4.110820  0.000000
  0.783000  4.480950  0.000000
  0.747340  4.430530  0.000000
  0.933160  4.889460  0.000000
  0.050310  4.059700  0.000000
  0.889530  4.683570  0.000000
  0.813700  4.520120  0.000000
  0.410330  4.149080  0.000000
  0.000000  4.053370  0.000000
  0.107250  4.059030  0.000000
  0.536100  4.215030  0.000000
  0.931480  4.807320  0.000000
  0.334000  4.108100  0.000000
  0.844710  4.559140  0.000000
  0.160100  4.060040  0.000000
  0.950750  4.908780  0.000000
  0.919440  4.723500  0.000000
  0.624460  4.270630  0.000000
  0.586410  4.238690  0.000000
  0.204170  4.058460  0.000000
  0.663680  4.301590  0.000000
  0.876210  4.597930  0.000000
  0.958070  4.880700  0.000000
  0.701400  4.333090  0.000000
  0.508940  4.175550  0.000000
  0.381190  4.108560  0.000000
  0.031060  4.026870  0.000000
  0.000000  4.025900  0.000000
  0.740560  4.363990  0.000000
  0.906430  4.637210  0.000000
  0.470020  4.144190  0.000000
  0.255160  4.055580  0.000000
  0.088530  4.025110  0.000000
  0.059110  4.022130  0.000000
  0.975450  4.903930  0.000000
  0.951070  4.761370  0.000000
  0.801540  4.434530  0.000000
  0.832430  4.473830  0.000000
  0.112210  4.020920  0.000000
  0.139100  4.023680  0.000000
  0.975410  4.843630  0.000000
  0.780460  4.393930  0.000000
  0.982630  4.875810  0.000000
  0.936300  4.676470  0.000000
  0.863100  4.512680  0.000000
  0.161710  4.019860  0.000000
  0.430910  4.103530  0.000000
  0.306100  4.052050  0.000000
  0.189650  4.021610  0.000000
  0.000000  4.000000  0.000000
  0.025130  3.999920  0.000000
  0.895060  4.551640  0.000000
  0.050260  3.999680  0.000000
  0.214920  4.020340  0.000000
  0.075390  3.999290  0.000000
  0.632700  4.220090  0.000000
  0.670930  4.252270  0.000000
  0.593820  4.189350  0.000000
  1.000130  4.898950  0.000000
  0.100520  3.998740  0.000000
  0.709830  4.282740  0.000000
  0.555440  4.157350  0.000000
  0.968490  4.714680  0.000000
  0.125640  3.998030  0.000000
  0.925640  4.591170  0.000000
  0.350670  4.049040  0.000000
  0.242550  4.015790  0.000000
  0.150760  3.997160  0.000000
  0.747880  4.314990  0.000000
  0.516660  4.126230  0.000000
  1.007690  4.868140  0.000000
  0.265420  4.017320  0.000000
  0.175870  3.996130  0.000000
  0.786040  4.344350  0.000000
  0.478220  4.094290  0.000000
  0.955830  4.630620  0.000000
  1.002820  4.789000  0.000000
  0.200980  3.994950  0.000000
  0.292990  4.012430  0.000000
  1.024780  4.893860  0.000000
  0.895190  4.488510  0.000000
  0.226070  3.993610  0.000000
  0.824000  4.376810  0.000000
  0.315880  4.013670  0.000000
  0.251160  3.992110  0.000000
  0.985910  4.670510  0.000000
  0.407830  4.043080  0.000000
  1.033910  4.868400  0.000000
  1.031530  4.830950  0.000000
  0.862380  4.408760  0.000000
  0.640420  4.172470  0.000000
  0.276240  3.990450  0.000000
  0.679720  4.203190  0.000000
  0.717500  4.235730  0.000000
  1.016830  4.742210  0.000000
  0.343390  4.008430  0.000000
  0.602370  4.140200  0.000000
  0.563350  4.109130  0.000000
  0.756930  4.266300  0.000000
  0.945660  4.532050  0.000000
  0.301310  3.988640  0.000000
  1.049410  4.888630  0.000000
  0.366290  4.009380  0.000000
  0.975120  4.584580  0.000000
  0.794000  4.296930  0.000000
  0.450550  4.039200  0.000000
  0.525120  4.077020  0.000000
  0.903090  4.439180  0.000000
  0.326360  3.986660  0.000000
  1.056150  4.860420  0.000000
  0.833200  4.327910  0.000000
  0.393730  4.003800  0.000000
  1.005410  4.624340  0.000000
  1.050990  4.778660  0.000000
  0.351400  3.984530  0.000000
  0.420670  4.006940  0.000000
  1.074000  4.883290  0.000000
  0.941810  4.470550  0.000000
  0.870650  4.359510  0.000000
  0.376430  3.982250  0.000000
  0.686830  4.154180  0.000000
  0.647400  4.123620  0.000000
  0.724670  4.186140  0.000000
  1.083670  4.857330  0.000000
  0.763820  4.217200  0.000000
  1.039560  4.659000  0.000000
  0.509300  4.031550  0.000000
  0.609920  4.091270  0.000000
  0.909570  4.390850  0.000000
  0.444010  3.998530  0.000000
  0.401450  3.979800  0.000000
  1.013720  4.576810  0.000000
  1.065510  4.731000  0.000000
  0.978750  4.500060  0.000000
  0.571130  4.059770  0.000000
  1.086110  4.824130  0.000000
  0.802320  4.246350  0.000000
  0.466930  3.998910  0.000000
  1.098580  4.877820  0.000000
  0.840480  4.278600  0.000000
  0.426440  3.977200  0.000000
  1.008080  4.537860  0.000000
  0.949820  4.421890  0.000000
  1.104180  4.855080  0.000000
  1.046290  4.612420  0.000000
  0.879350  4.309080  0.000000
  0.451430  3.974450  0.000000
  0.494220  3.992640  0.000000
  1.099060  4.767830  0.000000
  1.080330  4.683590  0.000000
  0.917290  4.341590  0.000000
  0.987050  4.450920  0.000000
  1.123120  4.872230  0.000000
  0.552920  4.012810  0.000000
  0.693720  4.105110  0.000000
  0.732560  4.136570  0.000000
  0.476390  3.971530  0.000000
  0.521040  3.993350  0.000000
  0.771170  4.167800  0.000000
  0.810200  4.198680  0.000000
  1.129440  4.843910  0.000000
  0.655400  4.066870  0.000000
  1.084830  4.644240  0.000000
  1.054970  4.562770  0.000000
  0.955910  4.372450  0.000000
  0.849370  4.229540  0.000000
  0.501330  3.968460  0.000000
  1.025260  4.482160  0.000000
  1.114300  4.720260  0.000000
  1.133620  4.805140  0.000000
  0.543730  3.983830  0.000000
  0.887060  4.262160  0.000000
  1.147640  4.866510  0.000000
  0.610460  4.017480  0.000000
  0.526260  3.965230  0.000000
  0.995410  4.401820  0.000000
  0.567280  3.985920  0.000000
  1.153810  4.838160  0.000000
  0.926520  4.292590  0.000000
  1.093140  4.595030  0.000000
  1.064040  4.513680  0.000000
  1.147010  4.756520  0.000000
  0.740410  4.087250  0.000000
  0.551160  3.961850  0.000000
  1.129080  4.672570  0.000000
  0.779110  4.118500  0.000000
  0.964010  4.325460  0.000000
  0.702010  4.055260  0.000000
  1.033500  4.432960  0.000000
  0.817710  4.150190  0.000000
  1.172120  4.860670  0.000000
  0.593890  3.978310  0.000000
  0.856690  4.180630  0.000000
  0.576040  3.958300  0.000000
  0.894190  4.212880  0.000000
  1.002110  4.355470  0.000000
  1.131490  4.626540  0.000000
  1.101920  4.545820  0.000000
  1.180920  4.835210  0.000000
  0.614760  3.975260  0.000000
  0.668920  4.008480  0.000000
  1.071850  4.464320  0.000000
  1.162800  4.709390  0.000000
  0.933370  4.243770  0.000000
  1.186320  4.800270  0.000000
  1.196580  4.854710  0.000000
  0.600900  3.954610  0.000000
  1.042350  4.387090  0.000000
  0.642310  3.974520  0.000000
  0.970670  4.276020  0.000000
  1.200760  4.829720  0.000000
  1.140590  4.577450  0.000000
  0.787140  4.070210  0.000000
  1.109730  4.496760  0.000000
  0.748930  4.038050  0.000000
  0.826340  4.101070  0.000000
  0.625740  3.950750  0.000000
  0.864250  4.133460  0.000000
  1.010010  4.306140  0.000000
  1.177870  4.661730  0.000000
  0.711220  4.000870  0.000000
  1.080390  4.416970  0.000000
  0.665860  3.967690  0.000000
  1.221000  4.848620  0.000000
  0.903680  4.163930  0.000000
  1.204640  4.744340  0.000000
  0.650550  3.946740  0.000000
  0.940670  4.194740  0.000000
  1.225510  4.816980  0.000000
  1.048740  4.337530  0.000000
  1.178470  4.609630  0.000000
  1.148500  4.528120  0.000000
  0.692200  3.966130  0.000000
  0.978510  4.226750  0.000000
  1.119030  4.448160  0.000000
  1.211760  4.699290  0.000000
  0.787450  4.025910  0.000000
  0.675330  3.942580  0.000000
  1.245400  4.842410  0.000000
  1.017010  4.258480  0.000000
  1.088420  4.367730  0.000000
  0.717110  3.961700  0.000000
  0.833610  4.052040  0.000000
  0.756030  3.987520  0.000000
  0.871470  4.084030  0.000000
  1.251010  4.813950  0.000000
  1.186370  4.560560  0.000000
  1.155830  4.478800  0.000000
  1.217130  4.641310  0.000000
  0.910580  4.115120  0.000000
  0.700090  3.938260  0.000000
  1.253570  4.774400  0.000000
  1.056740  4.288750  0.000000
  0.947800  4.147430  0.000000
  1.126900  4.398940  0.000000
  1.269760  4.836080  0.000000
  0.742860  3.952910  0.000000
  0.987550  4.177680  0.000000
  1.273570  4.811030  0.000000
  0.724820  3.933780  0.000000
  1.094250  4.318220  0.000000
  1.195060  4.511460  0.000000
  1.225170  4.591980  0.000000
  1.266370  4.726150  0.000000
  1.024930  4.207240  0.000000
  0.802210  3.982230  0.000000
  1.255280  4.673350  0.000000
  1.165380  4.429850  0.000000
  0.766830  3.952380  0.000000
  1.294100  4.829630  0.000000
  0.880480  4.034960  0.000000
  1.133130  4.349790  0.000000
  0.749530  3.929150  0.000000
  1.063160  4.239380  0.000000
  0.919700  4.066000  0.000000
  1.299410  4.801110  0.000000
  1.233350  4.543560  0.000000
  0.957570  4.098570  0.000000
  1.202840  4.462160  0.000000
  1.263340  4.624190  0.000000
  0.793570  3.944070  0.000000
  0.993940  4.128290  0.000000
  1.102410  4.268930  0.000000
  1.301580  4.761540  0.000000
  1.170660  4.380780  0.000000
  0.774200  3.924360  0.000000
  1.318390  4.823050  0.000000
  1.033090  4.159070  0.000000
  0.816440  3.942430  0.000000
  1.140960  4.300490  0.000000
  1.323570  4.794500  0.000000
  1.241550  4.493280  0.000000
  1.271960  4.574990  0.000000
  0.861510  3.971220  0.000000
  1.071950  4.190380  0.000000
  0.798840  3.919420  0.000000
  1.313890  4.713150  0.000000
  1.210210  4.413250  0.000000
  1.302040  4.655780  0.000000
  0.926970  4.016530  0.000000
  1.109500  4.223060  0.000000
  1.342660  4.816350  0.000000
  1.179620  4.331620  0.000000
  0.843070  3.933780  0.000000
  0.966180  4.039670  0.000000
  0.823450  3.914320  0.000000
  1.002070  4.074460  0.000000
  1.279990  4.525700  0.000000
  1.248010  4.444030  0.000000
  1.350550  4.790600  0.000000
  1.310300  4.607060  0.000000
  1.041280  4.109760  0.000000
  1.149230  4.251900  0.000000
  1.217670  4.363840  0.000000
  0.865910  3.931860  0.000000
  1.356670  4.755600  0.000000
  1.079760  4.141400  0.000000
  1.366890  4.809530  0.000000
  0.848030  3.909070  0.000000
  0.911350  3.960080  0.000000
  1.187690  4.283780  0.000000
  1.370190  4.784410  0.000000
  1.117370  4.173740  0.000000
  1.287720  4.474290  0.000000
  1.318710  4.557310  0.000000
  1.256680  4.394890  0.000000
  1.349560  4.637480  0.000000
  0.891800  3.922410  0.000000
  0.872570  3.903670  0.000000
  1.156090  4.205060  0.000000
  1.226710  4.315240  0.000000
  1.391090  4.802590  0.000000
  0.978910  3.990710  0.000000
  1.014270  4.026040  0.000000
  1.050030  4.060580  0.000000
  1.395830  4.773970  0.000000
  1.325440  4.506770  0.000000
  0.912400  3.918210  0.000000
  1.294790  4.426650  0.000000
  1.355140  4.588130  0.000000
  1.088140  4.092870  0.000000
  1.384340  4.693310  0.000000
  1.196120  4.234690  0.000000
  0.897080  3.898110  0.000000
  1.263580  4.345510  0.000000
  1.124230  4.126380  0.000000
  1.415250  4.795530  0.000000
  0.940210  3.918070  0.000000
  1.234180  4.265900  0.000000
  1.164090  4.156490  0.000000
  1.413420  4.733330  0.000000
  1.395120  4.645010  0.000000
  1.363750  4.538870  0.000000
  1.333930  4.457720  0.000000
  1.421540  4.770170  0.000000
  0.921560  3.892390  0.000000
  1.301870  4.377550  0.000000
  1.094070  4.050420  0.000000
  1.027200  3.977820  0.000000
  1.062320  4.013310  0.000000
  0.985170  3.934420  0.000000
  1.201100  4.185130  0.000000
  1.273040  4.296710  0.000000
  1.439370  4.788340  0.000000
  0.964450  3.908860  0.000000
  0.946000  3.886530  0.000000
  1.135660  4.077900  0.000000
  1.443830  4.759670  0.000000
  1.372350  4.489630  0.000000
  1.341190  4.408280  0.000000
  1.239450  4.216960  0.000000
  1.402100  4.570960  0.000000
  1.432110  4.678590  0.000000
  1.170300  4.107070  0.000000
  1.310220  4.328330  0.000000
  0.985780  3.900470  0.000000
  1.463460  4.781030  0.000000
  0.970400  3.880510  0.000000
  1.278870  4.247470  0.000000
  1.074990  3.974460  0.000000
  1.209730  4.136540  0.000000
  1.442740  4.629920  0.000000
  1.410700  4.521700  0.000000
  1.380800  4.440370  0.000000
  1.471010  4.754380  0.000000
  1.111100  4.003720  0.000000
  1.348160  4.358170  0.000000
  1.470330  4.721230  0.000000
  1.138900  4.028650  0.000000
  1.013490  3.896430  0.000000
  1.248030  4.168350  0.000000
  1.316510  4.278760  0.000000
  0.994760  3.874330  0.000000
  1.487520  4.773600  0.000000
  1.178610  4.057960  0.000000
  1.059950  3.922920  0.000000
  1.491190  4.750520  0.000000
  1.419300  4.472450  0.000000
  1.285040  4.198010  0.000000
  1.449060  4.553780  0.000000
  1.388310  4.389920  0.000000
  1.479140  4.663930  0.000000
  1.216550  4.090230  0.000000
  1.356230  4.308860  0.000000
  1.019080  3.868010  0.000000
  1.039650  3.886450  0.000000
  1.114360  3.954520  0.000000
  1.511530  4.766050  0.000000
  1.324420  4.229410  0.000000
  1.256680  4.119990  0.000000
  1.153920  3.983950  0.000000
  1.515550  4.737320  0.000000
  1.457660  4.504520  0.000000
  1.427900  4.423190  0.000000
  1.062370  3.883390  0.000000
  1.394850  4.340390  0.000000
  1.043370  3.861530  0.000000
  1.184470  4.008470  0.000000
  1.516850  4.697970  0.000000
  1.293080  4.148760  0.000000
  1.495640  4.597910  0.000000
  1.219140  4.044300  0.000000
  1.362650  4.259930  0.000000
  1.535510  4.758380  0.000000
  1.539380  4.729630  0.000000
  1.331580  4.180020  0.000000
  1.466260  4.455270  0.000000
  1.151280  3.939580  0.000000
  1.112700  3.898880  0.000000
  1.067610  3.854890  0.000000
  1.526030  4.648800  0.000000
  1.496020  4.536590  0.000000
  1.434430  4.370710  0.000000
  1.087750  3.872650  0.000000
  1.262450  4.070490  0.000000
  1.403020  4.291640  0.000000
  1.559440  4.750590  0.000000
  1.370650  4.210620  0.000000
  1.302200  4.099700  0.000000
  1.196300  3.962440  0.000000
  1.107810  3.867580  0.000000
  1.091810  3.848110  0.000000
  1.232330  3.996230  0.000000
  1.504610  4.487340  0.000000
  1.472590  4.400510  0.000000
  1.566160  4.724510  0.000000
  1.440410  4.321210  0.000000
  1.530240  4.552500  0.000000
  1.339890  4.132390  0.000000
  1.545280  4.594130  0.000000
  1.409310  4.242070  0.000000
  1.570650  4.686880  0.000000
  1.270020  4.021240  0.000000
  1.583340  4.742680  0.000000
  1.135380  3.862670  0.000000
  1.115960  3.841170  0.000000
  1.585500  4.717440  0.000000
  1.378090  4.162720  0.000000
  1.513210  4.438080  0.000000
  1.308520  4.052870  0.000000
  1.480410  4.351160  0.000000
  1.449030  4.272180  0.000000
  1.548340  4.514430  0.000000
  1.182650  3.887690  0.000000
  1.607200  4.734650  0.000000
  1.346580  4.082980  0.000000
  1.140080  3.834090  0.000000
  1.417420  4.193380  0.000000
  1.239840  3.937760  0.000000
  1.161220  3.851880  0.000000
  1.280240  3.982070  0.000000
  1.610640  4.705840  0.000000
  1.579210  4.562400  0.000000
  1.519210  4.382510  0.000000
  1.486930  4.303460  0.000000
  1.595260  4.609060  0.000000
  1.554420  4.464840  0.000000
  1.385850  4.113040  0.000000
  1.454690  4.222660  0.000000
  1.315210  4.003360  0.000000
  1.183830  3.848100  0.000000
  1.164140  3.826850  0.000000
  1.631010  4.726500  0.000000
  1.626340  4.662060  0.000000
  1.424480  4.144410  0.000000
  1.636140  4.700400  0.000000
  1.354690  4.033780  0.000000
  1.526570  4.333170  0.000000
  1.560850  4.415290  0.000000
  1.493580  4.253930  0.000000
  1.594290  4.494790  0.000000
  1.209100  3.844130  0.000000
  1.188170  3.819460  0.000000
  1.291830  3.933440  0.000000
  1.392950  4.065760  0.000000
  1.654790  4.718230  0.000000
  1.462640  4.173320  0.000000
  1.627140  4.574110  0.000000
  1.322310  3.953910  0.000000
  1.657940  4.689380  0.000000
  1.567760  4.367300  0.000000
  1.533120  4.284370  0.000000
  1.255720  3.864710  0.000000
  1.600480  4.445730  0.000000
  1.432630  4.096070  0.000000
  1.212140  3.811920  0.000000
  1.361500  3.984900  0.000000
  1.501340  4.204940  0.000000
  1.653390  4.605330  0.000000
  1.233840  3.830020  0.000000
  1.634030  4.524990  0.000000
  1.678520  4.709840  0.000000
  1.398970  4.017010  0.000000
  1.469070  4.124060  0.000000
  1.684850  4.682870  0.000000
  1.573980  4.316960  0.000000
  1.607950  4.397010  0.000000
  1.539370  4.234870  0.000000
  1.236070  3.804230  0.000000
  1.256150  3.825100  0.000000
  1.331210  3.907730  0.000000
  1.640420  4.475760  0.000000
  1.687550  4.648350  0.000000
  1.439120  4.046770  0.000000
  1.702210  4.701330  0.000000
  1.507920  4.155500  0.000000
  1.672600  4.554260  0.000000
  1.370340  3.935730  0.000000
  1.705810  4.677810  0.000000
  1.304190  3.848630  0.000000
  1.613610  4.347420  0.000000
  1.580360  4.267780  0.000000
  1.259950  3.796380  0.000000
  1.478200  4.076180  0.000000
  1.646490  4.426220  0.000000
  1.408410  3.968080  0.000000
  1.280960  3.813110  0.000000
  1.547290  4.185540  0.000000
  1.679370  4.504760  0.000000
  1.725860  4.692700  0.000000
  1.444850  3.997190  0.000000
  1.515760  4.106230  0.000000
  1.728580  4.663810  0.000000
  1.711440  4.584160  0.000000
  1.283770  3.788390  0.000000
  1.300900  3.806230  0.000000
  1.620200  4.297940  0.000000
  1.653600  4.376830  0.000000
  1.586010  4.216950  0.000000
  1.686220  4.455930  0.000000
  1.374610  3.880510  0.000000
  1.484790  4.026640  0.000000
  1.554240  4.137970  0.000000
  1.749460  4.683950  0.000000
  1.718790  4.535220  0.000000
  1.412640  3.912960  0.000000
  1.743650  4.623150  0.000000
  1.754030  4.658430  0.000000
  1.307550  3.780250  0.000000
  1.328020  3.800750  0.000000
  1.659560  4.328620  0.000000
  1.626450  4.248480  0.000000
  1.524370  4.057040  0.000000
  1.451380  3.947640  0.000000
  1.692610  4.407960  0.000000
  1.594030  4.168180  0.000000
  1.725690  4.486440  0.000000
  1.773020  4.675080  0.000000
  1.491010  3.978020  0.000000
  1.562550  4.089240  0.000000
  1.775450  4.646170  0.000000
  1.758040  4.566120  0.000000
  1.331280  3.771960  0.000000
  1.373380  3.817520  0.000000
  1.665830  4.279040  0.000000
  1.353290  3.788670  0.000000
  1.699490  4.358550  0.000000
  1.631510  4.197640  0.000000
  1.421740  3.863820  0.000000
  1.732520  4.437340  0.000000
  1.531040  4.007890  0.000000
  1.600350  4.118750  0.000000
  1.796540  4.666100  0.000000
  1.459710  3.896170  0.000000
  1.765230  4.516820  0.000000
  1.354950  3.763520  0.000000
  1.372550  3.781110  0.000000
  1.802480  4.641260  0.000000
  1.568620  4.039640  0.000000
  1.705580  4.309330  0.000000
  1.497600  3.928710  0.000000
  1.672680  4.229550  0.000000
  1.799500  4.605360  0.000000
  1.738610  4.389520  0.000000
  1.639770  4.148390  0.000000
  1.771960  4.467840  0.000000
  1.820010  4.656990  0.000000
  1.536680  3.958270  0.000000
  1.378570  3.754940  0.000000
  1.820890  4.631670  0.000000
  1.608480  4.069580  0.000000
  1.803930  4.548180  0.000000
  1.399430  3.775040  0.000000
  1.711750  4.261430  0.000000
  1.744290  4.340330  0.000000
  1.468870  3.847490  0.000000
  1.678220  4.179970  0.000000
  1.433190  3.801610  0.000000
  1.575070  3.990100  0.000000
  1.778840  4.418900  0.000000
  1.646620  4.101660  0.000000
  1.843430  4.647770  0.000000
  1.506900  3.879830  0.000000
  1.809760  4.499690  0.000000
  1.402140  3.746200  0.000000
  1.421430  3.763470  0.000000
  1.845420  4.618820  0.000000
  1.544010  3.912970  0.000000
  1.614670  4.020560  0.000000
  1.752010  4.291040  0.000000
  1.717680  4.210630  0.000000
  1.784420  4.369950  0.000000
  1.849710  4.581730  0.000000
  1.686640  4.131700  0.000000
  1.816490  4.450920  0.000000
  1.866810  4.638430  0.000000
  1.425650  3.737320  0.000000
  1.583590  3.941370  0.000000
  1.652750  4.052050  0.000000
  1.446750  3.757160  0.000000
  1.868780  4.613590  0.000000
  1.849640  4.529790  0.000000
  1.516540  3.837070  0.000000
  1.757560  4.241460  0.000000
  1.790180  4.320790  0.000000
  1.620300  3.974540  0.000000
  1.724540  4.161210  0.000000
  1.822420  4.401310  0.000000
  1.553010  3.864110  0.000000
  1.692610  4.082100  0.000000
  1.890140  4.628970  0.000000
  1.855820  4.480360  0.000000
  1.449100  3.728280  0.000000
  1.495910  3.778240  0.000000
  1.891830  4.600010  0.000000
  1.470930  3.743930  0.000000
  1.590100  3.897180  0.000000
  1.661310  4.002940  0.000000
  1.797490  4.271360  0.000000
  1.763760  4.191520  0.000000
  1.828790  4.351760  0.000000
  1.896310  4.562120  0.000000
  1.732540  4.111970  0.000000
  1.862350  4.431110  0.000000
  1.913420  4.619400  0.000000
  1.472500  3.719110  0.000000
  1.630980  3.925820  0.000000
  1.490660  3.736680  0.000000
  1.698810  4.032810  0.000000
  1.557990  3.815700  0.000000
  1.895150  4.510930  0.000000
  1.915250  4.594390  0.000000
  1.803480  4.221750  0.000000
  1.836580  4.302500  0.000000
  1.665570  3.953580  0.000000
  1.594420  3.847980  0.000000
  1.770950  4.143810  0.000000
  1.868420  4.382170  0.000000
  1.738630  4.062890  0.000000
  1.495840  3.709780  0.000000
  1.936650  4.609710  0.000000
  1.902070  4.461460  0.000000
  1.518140  3.732360  0.000000
  1.938050  4.580720  0.000000
  1.635460  3.876360  0.000000
  1.705240  3.983250  0.000000
  1.934840  4.541230  0.000000
  1.843010  4.253020  0.000000
  1.874360  4.332540  0.000000
  1.809920  4.172510  0.000000
  1.776880  4.094230  0.000000
  1.908510  4.411950  0.000000
  1.519120  3.700310  0.000000
  1.959830  4.599900  0.000000
  1.598990  3.797910  0.000000
  1.675370  3.905930  0.000000
  1.540710  3.719610  0.000000
  1.744900  4.013670  0.000000
  1.566860  3.749370  0.000000
  1.940480  4.491620  0.000000
  1.961090  4.570910  0.000000
  1.848600  4.203640  0.000000
  1.882410  4.283620  0.000000
  1.639660  3.826930  0.000000
  1.711340  3.933740  0.000000
  1.816750  4.123920  0.000000
  1.914340  4.362530  0.000000
  1.542340  3.690690  0.000000
  1.783570  4.044760  0.000000
  1.982970  4.589970  0.000000
  1.560550  3.708110  0.000000
  1.948020  4.442490  0.000000
  1.679590  3.856380  0.000000
  1.977000  4.526980  0.000000
  1.986830  4.563750  0.000000
  1.752810  3.966670  0.000000
  1.887920  4.234030  0.000000
  1.856410  4.154340  0.000000
  1.920900  4.312980  0.000000
  1.822920  4.075490  0.000000
  1.953720  4.392950  0.000000
  1.565490  3.680930  0.000000
  1.644520  3.777340  0.000000
  1.719840  3.885580  0.000000
  2.006050  4.579930  0.000000
  1.587330  3.699960  0.000000
  1.791360  3.995460  0.000000
  1.613850  3.729390  0.000000
  1.985610  4.471860  0.000000
  2.007020  4.550930  0.000000
  1.894740  4.184570  0.000000
  1.927920  4.263870  0.000000
  1.684680  3.806830  0.000000
  1.757800  3.916950  0.000000
  1.862940  4.104840  0.000000
  1.960500  4.343480  0.000000
  1.588590  3.671020  0.000000
  1.829480  4.026020  0.000000
  2.029080  4.569770  0.000000
  1.993470  4.423050  0.000000
  1.610550  3.689910  0.000000
  1.724650  3.836540  0.000000
  2.033150  4.543140  0.000000
  1.798310  3.946020  0.000000
  1.934140  4.214330  0.000000
  1.966620  4.293890  0.000000
  1.902390  4.135460  0.000000
  2.033680  4.508310  0.000000
  1.868850  4.056690  0.000000
  1.611630  3.660960  0.000000
  1.999730  4.373480  0.000000
  1.763170  3.867280  0.000000
  1.690220  3.757180  0.000000
  2.052060  4.559500  0.000000
  1.654290  3.705410  0.000000
  1.837500  3.976950  0.000000
  1.634830  3.675970  0.000000
  2.051680  4.534170  0.000000
  1.941350  4.166680  0.000000
  1.973810  4.244670  0.000000
  1.803430  3.896860  0.000000
  1.731730  3.787090  0.000000
  1.909210  4.085940  0.000000
  2.006420  4.324080  0.000000
  1.634600  3.650770  0.000000
  1.874480  4.007040  0.000000
  2.074990  4.549110  0.000000
  1.653470  3.666970  0.000000
  2.039230  4.404120  0.000000
  2.052420  4.441980  0.000000
  1.770920  3.818070  0.000000
  2.075520  4.520100  0.000000
  1.842220  3.927490  0.000000
  1.980560  4.196970  0.000000
  1.947800  4.117120  0.000000
  2.013060  4.275540  0.000000
  1.914580  4.036840  0.000000
  1.657500  3.640420  0.000000
  2.045990  4.354590  0.000000
  1.810330  3.847370  0.000000
  1.737200  3.737820  0.000000
  2.097870  4.538610  0.000000
  1.679810  3.658900  0.000000
  2.087010  4.477340  0.000000
  1.882070  3.957180  0.000000
  1.707060  3.687650  0.000000
  2.100410  4.512600  0.000000
  1.776220  3.768400  0.000000
  1.987430  4.147560  0.000000
  1.849660  3.878190  0.000000
  2.020200  4.226060  0.000000
  1.953130  4.067730  0.000000
  2.052640  4.305670  0.000000
  1.680340  3.629940  0.000000
  1.921820  3.987400  0.000000
  2.120690  4.527990  0.000000
  2.085280  4.385450  0.000000
  1.706560  3.650790  0.000000
  2.102020  4.432500  0.000000
  1.816470  3.797970  0.000000
  2.120930  4.498970  0.000000
  1.888560  3.907620  0.000000
  2.026000  4.176610  0.000000
  1.992570  4.097930  0.000000
  2.059110  4.255870  0.000000
  1.743370  3.671460  0.000000
  1.703120  3.619310  0.000000
  1.960930  4.018490  0.000000
  1.855190  3.828570  0.000000
  2.092220  4.335970  0.000000
  1.783230  3.718770  0.000000
  2.143460  4.517250  0.000000
  1.725660  3.637500  0.000000
  1.928200  3.938070  0.000000
  2.146850  4.490530  0.000000
  2.143430  4.458620  0.000000
  1.823340  3.748490  0.000000
  2.032770  4.127500  0.000000
  1.895240  3.858380  0.000000
  2.066110  4.206380  0.000000
  1.999180  4.048450  0.000000
  2.098750  4.286440  0.000000
  1.725820  3.608540  0.000000
  1.967180  3.968970  0.000000
  2.166180  4.506400  0.000000
  1.750380  3.630260  0.000000
  2.141940  4.399120  0.000000
  2.132270  4.360880  0.000000
  2.165150  4.481090  0.000000
  1.862670  3.779300  0.000000
  2.122910  4.314650  0.000000
  1.935370  3.888600  0.000000
  2.072280  4.157960  0.000000
  2.038330  4.077830  0.000000
  2.105450  4.237120  0.000000
  1.787740  3.650930  0.000000
  1.748460  3.597620  0.000000
  2.006760  3.999380  0.000000
  1.901070  3.808740  0.000000
  2.188840  4.495440  0.000000
  1.771230  3.615530  0.000000
  1.830470  3.691480  0.000000
  1.974590  3.919590  0.000000
  2.188640  4.466430  0.000000
  2.076390  4.110060  0.000000
  1.868300  3.729710  0.000000
  1.940160  3.839870  0.000000
  2.112150  4.187650  0.000000
  2.165130  4.341390  0.000000
  2.045760  4.030530  0.000000
  1.771030  3.586560  0.000000
  2.151940  4.283580  0.000000
  2.197020  4.427570  0.000000
  2.211440  4.484360  0.000000
  2.013720  3.950560  0.000000
  1.797520  3.606300  0.000000
  1.908220  3.759650  0.000000
  2.211100  4.455350  0.000000
  1.981810  3.870120  0.000000
  2.084820  4.060900  0.000000
  2.118070  4.138080  0.000000
  2.151710  4.218200  0.000000
  1.793530  3.575370  0.000000
  2.053280  3.981120  0.000000
  1.947490  3.790440  0.000000
  1.875360  3.680300  0.000000
  2.233990  4.473170  0.000000
  2.207660  4.366900  0.000000
  2.021030  3.901120  0.000000
  1.816770  3.588740  0.000000
  2.233500  4.444160  0.000000
  1.844830  3.620690  0.000000
  1.914690  3.711130  0.000000
  2.123290  4.092800  0.000000
  2.209160  4.318570  0.000000
  2.158100  4.168000  0.000000
  2.091870  4.011530  0.000000
  1.815960  3.564030  0.000000
  2.256480  4.461870  0.000000
  1.993530  3.813130  0.000000
  2.059980  3.931620  0.000000
  1.835620  3.579270  0.000000
  1.954570  3.740970  0.000000
  2.210490  4.268660  0.000000
  2.259800  4.436810  0.000000
  2.252860  4.402410  0.000000
  2.030740  3.847370  0.000000
  2.131210  4.042340  0.000000
  1.838320  3.552550  0.000000
  1.920510  3.661480  0.000000
  2.099380  3.962310  0.000000
  2.278920  4.450450  0.000000
  2.251990  4.343810  0.000000
  2.212030  4.218690  0.000000
  1.861530  3.569880  0.000000
  2.277260  4.425170  0.000000
  2.068480  3.880170  0.000000
  2.199440  4.162080  0.000000
  1.890190  3.597220  0.000000
  2.003660  3.764160  0.000000
  1.960570  3.691380  0.000000
  2.186540  4.113780  0.000000
  2.170180  4.073620  0.000000
  2.252920  4.294980  0.000000
  2.138430  3.993450  0.000000
  1.860600  3.540930  0.000000
  2.301300  4.438920  0.000000
  2.041000  3.797420  0.000000
  2.106290  3.912810  0.000000
  1.880280  3.556680  0.000000
  2.300370  4.409920  0.000000
  2.254530  4.245020  0.000000
  2.078020  3.831100  0.000000
  2.300410  4.371520  0.000000
  2.177660  4.024220  0.000000
  2.013790  3.715200  0.000000
  1.882820  3.529160  0.000000
  2.145900  3.944020  0.000000
  2.323620  4.427280  0.000000
  2.295610  4.320910  0.000000
  2.247730  4.175070  0.000000
  1.906240  3.546210  0.000000
  2.322980  4.402160  0.000000
  2.234830  4.126760  0.000000
  2.115710  3.863920  0.000000
  2.051130  3.748460  0.000000
  1.935240  3.573190  0.000000
  2.221930  4.078450  0.000000
  2.296800  4.271110  0.000000
  1.986580  3.632980  0.000000
  2.184770  3.974760  0.000000
  1.904950  3.517270  0.000000
  2.345880  4.415530  0.000000
  2.088460  3.781710  0.000000
  2.152840  3.897090  0.000000
  1.928490  3.534160  0.000000
  2.344650  4.386540  0.000000
  2.023920  3.666240  0.000000
  2.298340  4.221460  0.000000
  2.338930  4.346970  0.000000
  2.183230  3.933530  0.000000
  2.125800  3.814960  0.000000
  2.061260  3.699490  0.000000
  1.927010  3.505230  0.000000
  2.283110  4.139740  0.000000
  2.368080  4.403660  0.000000
  2.339000  4.297580  0.000000
  2.270210  4.091440  0.000000
  1.996710  3.584020  0.000000
  2.366710  4.374680  0.000000
  1.948980  3.515070  0.000000
  2.163130  3.848220  0.000000
  2.098590  3.732750  0.000000
  2.257320  4.043130  0.000000
  1.971330  3.534610  0.000000
  2.340910  4.247660  0.000000
  2.244420  3.994820  0.000000
  2.034050  3.617280  0.000000
  1.949000  3.493050  0.000000
  2.390220  4.391680  0.000000
  2.135930  3.766000  0.000000
  2.231510  3.946510  0.000000
  1.969060  3.508300  0.000000
  2.071390  3.650530  0.000000
  2.392280  4.364060  0.000000
  2.342340  4.197760  0.000000
  2.218600  3.898190  0.000000
  2.387210  4.330560  0.000000
  2.331400  4.152730  0.000000
  2.173270  3.799260  0.000000
  2.318500  4.104420  0.000000
  2.108730  3.683780  0.000000
  2.205700  3.849890  0.000000
  1.970910  3.480740  0.000000
  2.382160  4.273810  0.000000
  2.412300  4.379590  0.000000
  2.305600  4.056110  0.000000
  1.990240  3.499770  0.000000
  2.044180  3.568310  0.000000
  2.411720  4.356010  0.000000
  2.292700  4.007800  0.000000
  2.146060  3.717040  0.000000
  2.024420  3.523430  0.000000
  2.279810  3.959500  0.000000
  2.081520  3.601570  0.000000
  2.384720  4.224170  0.000000
  1.992740  3.468280  0.000000
  2.266890  3.911170  0.000000
  2.434320  4.367390  0.000000
  2.183400  3.750300  0.000000
  2.012990  3.483280  0.000000
  2.118850  3.634820  0.000000
  2.432510  4.338430  0.000000
  2.253990  3.862860  0.000000
  2.386440  4.174210  0.000000
  2.366780  4.117400  0.000000
  2.353890  4.069100  0.000000
  2.220740  3.783550  0.000000
  2.156200  3.668080  0.000000
  2.437360  4.298800  0.000000
  2.341030  4.020770  0.000000
  2.014490  3.455690  0.000000
  2.456270  4.355080  0.000000
  2.091650  3.552600  0.000000
  2.328100  3.972470  0.000000
  2.454320  4.326130  0.000000
  2.038550  3.471840  0.000000
  2.193530  3.701330  0.000000
  2.259360  3.818270  0.000000
  2.315180  3.924150  0.000000
  2.128980  3.585860  0.000000
  2.068540  3.497710  0.000000
  2.445990  4.238010  0.000000
  2.302270  3.875840  0.000000
  2.036170  3.442970  0.000000
  2.478170  4.342660  0.000000
  2.166320  3.619110  0.000000
  2.476070  4.313720  0.000000
  2.416380  4.122420  0.000000
  2.060320  3.458960  0.000000
  2.445150  4.188520  0.000000
  2.231200  3.708550  0.000000
  2.376390  3.985430  0.000000
  2.415230  4.072440  0.000000
  2.483250  4.270930  0.000000
  2.500000  4.330130  0.000000
  2.057760  3.430110  0.000000
  2.308250  3.828640  0.000000
  2.363460  3.937130  0.000000
  2.139110  3.536890  0.000000
  2.500090  4.304170  0.000000
  2.292840  3.781160  0.000000
  2.224400  3.659060  0.000000
  2.350560  3.888820  0.000000
  2.082660  3.442080  0.000000
  2.176450  3.570150  0.000000
  2.108470  3.471570  0.000000
  2.414930  4.021180  0.000000
  2.277620  3.727220  0.000000
  2.488970  4.212500  0.000000
  2.521770  4.317490  0.000000
  2.079270  3.417110  0.000000
  2.218060  3.609500  0.000000
  2.519380  4.288570  0.000000
  2.459070  4.096400  0.000000
  2.103620  3.432800  0.000000
  2.487910  4.162690  0.000000
  2.270570  3.677800  0.000000
  2.149240  3.487930  0.000000
  2.411750  3.950080  0.000000
  2.457970  4.046570  0.000000
  2.397320  3.902360  0.000000
  2.543470  4.304730  0.000000
  2.100700  3.403980  0.000000
  2.371380  3.843500  0.000000
  2.186580  3.521190  0.000000
  2.345590  3.788510  0.000000
  2.529650  4.242990  0.000000
  2.326850  3.744990  0.000000
  2.544010  4.278230  0.000000
  2.264090  3.628930  0.000000
  2.125750  3.415640  0.000000
  2.223920  3.554440  0.000000
  2.458500  3.996720  0.000000
  2.527780  4.185510  0.000000
  2.151200  3.440790  0.000000
  2.316740  3.696210  0.000000
  2.510120  4.119170  0.000000
  2.565110  4.291880  0.000000
  2.122040  3.390710  0.000000
  2.562430  4.262980  0.000000
  2.257830  3.579360  0.000000
  2.501400  4.070080  0.000000
  2.146590  3.406090  0.000000
  2.452320  3.927740  0.000000
  2.310220  3.647810  0.000000
  2.370400  3.752320  0.000000
  2.434440  3.866920  0.000000
  2.586690  4.278910  0.000000
  2.501130  4.022550  0.000000
  2.143310  3.377310  0.000000
  2.238480  3.504830  0.000000
  2.363610  3.711370  0.000000
  2.587500  4.251220  0.000000
  2.403810  3.780430  0.000000
  2.579950  4.219030  0.000000
  2.494430  3.967330  0.000000
  2.168500  3.388660  0.000000
  2.429630  3.817780  0.000000
  2.570100  4.156700  0.000000
  2.352720  3.663170  0.000000
  2.306940  3.585070  0.000000
  2.198900  3.417260  0.000000
  2.608200  4.265830  0.000000
  2.225830  3.454260  0.000000
  2.491030  3.926530  0.000000
  2.536940  4.038520  0.000000
  2.164490  3.363780  0.000000
  2.606360  4.242500  0.000000
  2.561300  4.096330  0.000000
  2.480490  3.878390  0.000000
  2.348020  3.616060  0.000000
  2.286880  3.517130  0.000000
  2.192570  3.376970  0.000000
  2.411730  3.724410  0.000000
  2.538040  3.989080  0.000000
  2.473640  3.840170  0.000000
  2.629640  4.252640  0.000000
  2.185580  3.350110  0.000000
  2.525550  3.941370  0.000000
  2.626530  4.223800  0.000000
  2.398480  3.676350  0.000000
  2.461040  3.793940  0.000000
  2.273480  3.469210  0.000000
  2.346140  3.577420  0.000000
  2.623670  4.185500  0.000000
  2.582520  4.054340  0.000000
  2.208470  3.359730  0.000000
  2.253620  3.420060  0.000000
  2.392590  3.637130  0.000000
  2.614310  4.132930  0.000000
  2.229480  3.382290  0.000000
  2.455270  3.744400  0.000000
  2.651020  4.239350  0.000000
  2.525690  3.891490  0.000000
  2.335440  3.528790  0.000000
  2.579360  4.013090  0.000000
  2.648490  4.214350  0.000000
  2.206580  3.336310  0.000000
  2.611820  4.086670  0.000000
  2.443130  3.698060  0.000000
  2.521260  3.854890  0.000000
  2.571230  3.966000  0.000000
  2.321060  3.480970  0.000000
  2.231510  3.351070  0.000000
  2.389920  3.590090  0.000000
  2.510550  3.806670  0.000000
  2.672330  4.225950  0.000000
  2.668920  4.197140  0.000000
  2.568620  3.916210  0.000000
  2.227500  3.322380  0.000000
  2.440290  3.649570  0.000000
  2.659220  4.158720  0.000000
  2.309920  3.436440  0.000000
  2.502950  3.766370  0.000000
  2.382400  3.543300  0.000000
  2.623180  4.037100  0.000000
  2.424830  3.602770  0.000000
  2.656580  4.108860  0.000000
  2.252970  3.333090  0.000000
  2.492640  3.716720  0.000000
  2.368550  3.496140  0.000000
  2.693570  4.212440  0.000000
  2.569340  3.868060  0.000000
  2.622420  3.987350  0.000000
  2.690020  4.183650  0.000000
  2.284080  3.360920  0.000000
  2.248330  3.308320  0.000000
  2.653500  4.059140  0.000000
  2.556200  3.819970  0.000000
  2.480610  3.667170  0.000000
  2.419620  3.553160  0.000000
  2.612770  3.938440  0.000000
  2.358270  3.447780  0.000000
  2.273440  3.322770  0.000000
  2.550630  3.781080  0.000000
  2.714740  4.198830  0.000000
  2.698440  4.137690  0.000000
  2.473200  3.617810  0.000000
  2.611010  3.890790  0.000000
  2.714210  4.172320  0.000000
  2.539770  3.732700  0.000000
  2.269080  3.294130  0.000000
  2.341940  3.393880  0.000000
  2.415700  3.503430  0.000000
  2.600330  3.842100  0.000000
  2.464940  3.573110  0.000000
  2.697810  4.081900  0.000000
  2.669840  4.003080  0.000000
  2.530580  3.684510  0.000000
  2.404640  3.464930  0.000000
  2.294680  3.304520  0.000000
  2.735850  4.185110  0.000000
  2.659630  3.954170  0.000000
  2.732010  4.156350  0.000000
  2.326130  3.331960  0.000000
  2.289730  3.279810  0.000000
  2.695450  4.032000  0.000000
  2.598620  3.794720  0.000000
  2.647870  3.906160  0.000000
  2.519480  3.635850  0.000000
  2.390540  3.417510  0.000000
  2.460540  3.525280  0.000000
  2.586090  3.746430  0.000000
  2.315020  3.293940  0.000000
  2.756890  4.171280  0.000000
  2.512660  3.587650  0.000000
  2.448170  3.476950  0.000000
  2.647460  3.856790  0.000000
  2.574630  3.698180  0.000000
  2.756490  4.144350  0.000000
  2.382710  3.368660  0.000000
  2.310290  3.265360  0.000000
  2.634430  3.809170  0.000000
  2.751920  4.108890  0.000000
  2.501650  3.539340  0.000000
  2.707520  3.968440  0.000000
  2.566980  3.650360  0.000000
  2.437280  3.427750  0.000000
  2.777850  4.157350  0.000000
  2.336020  3.275420  0.000000
  2.695810  3.919870  0.000000
  2.773280  4.132430  0.000000
  2.634240  3.759500  0.000000
  2.554690  3.602230  0.000000
  2.367820  3.302460  0.000000
  2.689270  3.879240  0.000000
  2.330760  3.250780  0.000000
  2.428230  3.388030  0.000000
  2.495940  3.490120  0.000000
  2.758770  4.041380  0.000000
  2.621140  3.711350  0.000000
  2.678250  3.833080  0.000000
  2.356230  3.264590  0.000000
  2.798750  4.143310  0.000000
  2.547890  3.552810  0.000000
  2.418560  3.344920  0.000000
  2.794470  4.114610  0.000000
  2.484540  3.443300  0.000000
  2.613240  3.669090  0.000000
  2.754390  3.991580  0.000000
  2.351140  3.236070  0.000000
  2.676760  3.783190  0.000000
  2.540760  3.511230  0.000000
  2.606000  3.619710  0.000000
  2.474940  3.395230  0.000000
  2.753070  3.938820  0.000000
  2.819570  4.129170  0.000000
  2.378890  3.252720  0.000000
  2.667050  3.730890  0.000000
  2.808430  4.071890  0.000000
  2.818840  4.101480  0.000000
  2.528460  3.463130  0.000000
  2.593850  3.571330  0.000000
  2.745480  3.889490  0.000000
  2.465240  3.358650  0.000000
  2.371430  3.221230  0.000000
  2.799700  4.012700  0.000000
  2.661250  3.681680  0.000000
  2.738810  3.840020  0.000000
  2.840320  4.114920  0.000000
  2.448800  3.306780  0.000000
  2.520150  3.414190  0.000000
  2.724520  3.797620  0.000000
  2.836110  4.090270  0.000000
  2.646910  3.634160  0.000000
  2.396240  3.230020  0.000000
  2.587870  3.523550  0.000000
  2.713400  3.749330  0.000000
  2.391620  3.206270  0.000000
  2.425760  3.251150  0.000000
  2.803360  3.955900  0.000000
  2.575380  3.475650  0.000000
  2.641550  3.584710  0.000000
  2.791800  3.907340  0.000000
  2.861000  4.100570  0.000000
  2.514290  3.364770  0.000000
  2.413510  3.218750  0.000000
  2.705820  3.700020  0.000000
  2.856300  4.071940  0.000000
  2.566240  3.432620  0.000000
  2.627750  3.537130  0.000000
  2.496650  3.320490  0.000000
  2.784860  3.859260  0.000000
  2.851330  4.033860  0.000000
  2.692910  3.653590  0.000000
  2.411720  3.191180  0.000000
  2.839960  3.984310  0.000000
  2.772610  3.810880  0.000000
  2.554570  3.387580  0.000000
  2.881610  4.086110  0.000000
  2.759670  3.762700  0.000000
  2.485120  3.272750  0.000000
  2.621860  3.487560  0.000000
  2.877710  4.061290  0.000000
  2.437520  3.204340  0.000000
  2.686510  3.604060  0.000000
  2.839430  3.921390  0.000000
  2.541750  3.335910  0.000000
  2.753870  3.713430  0.000000
  2.431720  3.175960  0.000000
  2.613870  3.446990  0.000000
  2.677050  3.556040  0.000000
  2.826590  3.873430  0.000000
  2.902150  4.071550  0.000000
  2.741080  3.665210  0.000000
  2.897150  4.042970  0.000000
  2.885330  4.005150  0.000000
  2.477330  3.216660  0.000000
  2.455160  3.186210  0.000000
  2.531250  3.289620  0.000000
  2.820390  3.824210  0.000000
  2.603100  3.399220  0.000000
  2.667570  3.507030  0.000000
  2.806690  3.776540  0.000000
  2.733570  3.620750  0.000000
  2.879940  3.955510  0.000000
  2.451630  3.160620  0.000000
  2.589140  3.351580  0.000000
  2.518350  3.242720  0.000000
  2.922610  4.056890  0.000000
  2.798620  3.731960  0.000000
  2.917470  4.028330  0.000000
  2.724260  3.571690  0.000000
  2.662240  3.458610  0.000000
  2.477600  3.173460  0.000000
  2.873050  3.891650  0.000000
  2.786670  3.685030  0.000000
  2.647260  3.411170  0.000000
  2.579220  3.302940  0.000000
  2.471440  3.145150  0.000000
  2.865260  3.842360  0.000000
  2.714580  3.523120  0.000000
  2.943000  4.042120  0.000000
  2.852840  3.795570  0.000000
  2.780020  3.635770  0.000000
  2.562330  3.251360  0.000000
  2.941440  4.014470  0.000000
  2.930630  3.982320  0.000000
  2.636450  3.362450  0.000000
  2.703920  3.474590  0.000000
  2.497640  3.153920  0.000000
  2.770120  3.587060  0.000000
  2.846410  3.746300  0.000000
  2.919620  3.926310  0.000000
  2.491150  3.129560  0.000000
  2.625890  3.319870  0.000000
  2.530760  3.179320  0.000000
  2.692450  3.426200  0.000000
  2.963310  4.027260  0.000000
  2.834600  3.697810  0.000000
  2.912700  3.877970  0.000000
  2.959380  4.004030  0.000000
  2.761880  3.538930  0.000000
  2.517280  3.142080  0.000000
  2.826260  3.654610  0.000000
  2.899300  3.813840  0.000000
  2.613620  3.271680  0.000000
  2.683840  3.377210  0.000000
  2.751540  3.489570  0.000000
  2.510770  3.113850  0.000000
  2.983550  4.012290  0.000000
  2.891630  3.764510  0.000000
  2.817500  3.602780  0.000000
  2.964650  3.946850  0.000000
  2.977980  3.983810  0.000000
  2.596940  3.215870  0.000000
  2.739460  3.439800  0.000000
  2.673790  3.329740  0.000000
  2.880360  3.717090  0.000000
  2.546760  3.135450  0.000000
  2.959010  3.896720  0.000000
  2.809810  3.553260  0.000000
  2.661220  3.286050  0.000000
  2.530280  3.098010  0.000000
  3.003710  3.997210  0.000000
  2.872950  3.668000  0.000000
  2.730250  3.395100  0.000000
  2.952190  3.847370  0.000000
  2.998000  3.968770  0.000000
  2.588290  3.165160  0.000000
  2.798660  3.504590  0.000000
  2.861540  3.619680  0.000000
  2.717960  3.349810  0.000000
  2.647940  3.238230  0.000000
  2.557300  3.106700  0.000000
  2.939270  3.779450  0.000000
  2.786240  3.456720  0.000000
  3.002650  3.923190  0.000000
  2.549700  3.082050  0.000000
  3.023800  3.982040  0.000000
  2.928120  3.730780  0.000000
  2.855030  3.570800  0.000000
  2.583690  3.123930  0.000000
  3.021210  3.955830  0.000000
  2.916170  3.682310  0.000000
  2.638720  3.189450  0.000000
  2.709810  3.297450  0.000000
  2.778080  3.408440  0.000000
  2.576050  3.094070  0.000000
  2.998090  3.866730  0.000000
  2.846190  3.519070  0.000000
  2.695090  3.249760  0.000000
  2.909380  3.633890  0.000000
  3.043810  3.966770  0.000000
  2.766540  3.361210  0.000000
  2.569010  3.065970  0.000000
  2.987990  3.805520  0.000000
  3.037810  3.938380  0.000000
  2.622850  3.134660  0.000000
  2.833910  3.470920  0.000000
  2.901210  3.589530  0.000000
  2.752370  3.313660  0.000000
  2.602300  3.089270  0.000000
  2.685140  3.207040  0.000000
  2.977020  3.746190  0.000000
  2.821500  3.422750  0.000000
  2.962240  3.701580  0.000000
  3.042270  3.891870  0.000000
  3.063740  3.951390  0.000000
  2.588220  3.049770  0.000000
  2.894390  3.540040  0.000000
  3.060940  3.925030  0.000000
  2.742560  3.265030  0.000000
  2.809580  3.371410  0.000000
  2.675310  3.158480  0.000000
  2.955660  3.652090  0.000000
  2.614730  3.061460  0.000000
  2.882010  3.484300  0.000000
  3.037990  3.824630  0.000000
  3.083590  3.935920  0.000000
  2.948370  3.602690  0.000000
  2.799630  3.324240  0.000000
  2.732350  3.216620  0.000000
  3.077310  3.907590  0.000000
  2.607330  3.033450  0.000000
  2.869780  3.435470  0.000000
  2.648790  3.081680  0.000000
  3.028210  3.754170  0.000000
  2.789130  3.282130  0.000000
  2.721760  3.175750  0.000000
  2.937940  3.544610  0.000000
  2.633910  3.044970  0.000000
  2.856850  3.387490  0.000000
  3.016290  3.705630  0.000000
  3.103370  3.920340  0.000000
  3.083240  3.854870  0.000000
  2.626340  3.017010  0.000000
  3.005320  3.657160  0.000000
  3.100700  3.892780  0.000000
  2.928940  3.496030  0.000000
  2.778780  3.233710  0.000000
  2.847320  3.338720  0.000000
  2.705430  3.115520  0.000000
  2.994830  3.608500  0.000000
  2.918250  3.447400  0.000000
  2.652960  3.024440  0.000000
  3.123070  3.904670  0.000000
  2.836400  3.290600  0.000000
  2.770530  3.184530  0.000000
  3.116500  3.876410  0.000000
  2.985520  3.559490  0.000000
  2.904090  3.399530  0.000000
  2.645250  3.000440  0.000000
  2.685340  3.051370  0.000000
  3.064240  3.719530  0.000000
  3.088130  3.774600  0.000000
  2.825330  3.250580  0.000000
  2.754930  3.138930  0.000000
  2.974110  3.510960  0.000000
  2.893960  3.355870  0.000000
  3.052040  3.671120  0.000000
  2.671970  3.011630  0.000000
  3.142690  3.888900  0.000000
  3.133520  3.857650  0.000000
  3.041710  3.623180  0.000000
  2.965220  3.461930  0.000000
  2.664050  2.983760  0.000000
  2.816800  3.201430  0.000000
  2.882800  3.307410  0.000000
  2.741010  3.085100  0.000000
  2.951410  3.414750  0.000000
  3.032350  3.575630  0.000000
  2.800490  3.154640  0.000000
  3.105430  3.726780  0.000000
  2.698580  3.004120  0.000000
  3.162230  3.873020  0.000000
  2.730090  3.043530  0.000000
  3.144110  3.813330  0.000000
  2.874340  3.258290  0.000000
  3.021310  3.527340  0.000000
  3.158650  3.844900  0.000000
  2.941620  3.366940  0.000000
  2.682740  2.966970  0.000000
  3.100260  3.683400  0.000000
  3.132480  3.758690  0.000000
  2.857550  3.212850  0.000000
  2.791820  3.105850  0.000000
  3.085990  3.635730  0.000000
  3.011750  3.478300  0.000000
  2.930070  3.322850  0.000000
  3.181690  3.857060  0.000000
  2.709600  2.977820  0.000000
  3.175290  3.832730  0.000000
  3.074310  3.587320  0.000000
  2.998740  3.430090  0.000000
  2.776500  3.058600  0.000000
  2.848850  3.165440  0.000000
  2.916490  3.274850  0.000000
  2.701330  2.950050  0.000000
  2.744280  2.996960  0.000000
  3.069040  3.541830  0.000000
  2.988930  3.382080  0.000000
  3.142060  3.697660  0.000000
  2.904020  3.226540  0.000000
  2.834740  3.117730  0.000000
  2.724370  2.960280  0.000000
  3.190350  3.812340  0.000000
  3.201060  3.840990  0.000000
  3.053480  3.490390  0.000000
  3.133100  3.649300  0.000000
  2.979150  3.334400  0.000000
  2.719810  2.933020  0.000000
  2.893020  3.178160  0.000000
  3.191210  3.770870  0.000000
  3.121600  3.600910  0.000000
  2.824830  3.070060  0.000000
  3.046840  3.442770  0.000000
  2.964580  3.286830  0.000000
  3.220360  3.824820  0.000000
  3.111620  3.555240  0.000000
  3.213080  3.796740  0.000000
  2.746810  2.943530  0.000000
  3.032940  3.395000  0.000000
  2.882920  3.130190  0.000000
  2.951990  3.240260  0.000000
  2.807580  3.017820  0.000000
  3.189800  3.711830  0.000000
  2.738190  2.915870  0.000000
  3.100850  3.506050  0.000000
  3.021990  3.346350  0.000000
  3.177510  3.663570  0.000000
  2.940750  3.192750  0.000000
  3.239580  3.808560  0.000000
  2.872180  3.085080  0.000000
  3.090990  3.457480  0.000000
  3.232160  3.780510  0.000000
  2.765250  2.926210  0.000000
  3.168630  3.614490  0.000000
  2.790740  2.956500  0.000000
  3.012420  3.297410  0.000000
  2.756460  2.898610  0.000000
  2.930340  3.145240  0.000000
  3.159380  3.569800  0.000000
  3.081470  3.406790  0.000000
  2.861600  3.036290  0.000000
  3.000240  3.253230  0.000000
  3.258710  3.792200  0.000000
  3.148280  3.521340  0.000000
  3.240910  3.735550  0.000000
  3.069290  3.360860  0.000000
  3.254930  3.764770  0.000000
  2.787650  2.910510  0.000000
  2.919670  3.097610  0.000000
  2.987440  3.205060  0.000000
  3.226090  3.678650  0.000000
  2.847550  2.988530  0.000000
  3.138210  3.473070  0.000000
  2.774610  2.881240  0.000000
  3.059440  3.314020  0.000000
  3.215310  3.631020  0.000000
  3.277760  3.775750  0.000000
  2.906980  3.049480  0.000000
  3.270850  3.751710  0.000000
  2.976350  3.156470  0.000000
  3.128720  3.425100  0.000000
  3.047850  3.268250  0.000000
  3.207350  3.583630  0.000000
  2.801800  2.891240  0.000000
  3.116490  3.376680  0.000000
  3.195110  3.535230  0.000000
  2.792660  2.863750  0.000000
  2.967260  3.111960  0.000000
  2.895770  3.000930  0.000000
  3.035160  3.217670  0.000000
  3.296730  3.759200  0.000000
  3.272550  3.695680  0.000000
  2.837060  2.909280  0.000000
  3.183360  3.486690  0.000000
  3.288880  3.731260  0.000000
  3.107090  3.328480  0.000000
  2.816010  2.873240  0.000000
  2.951550  3.064670  0.000000
  2.883880  2.959860  0.000000
  3.262970  3.645980  0.000000
  3.023810  3.171690  0.000000
  3.172280  3.438000  0.000000
  2.810600  2.846140  0.000000
  3.096270  3.280490  0.000000
  3.252200  3.597340  0.000000
  3.315610  3.742550  0.000000
  3.307630  3.714660  0.000000
  2.943230  3.016090  0.000000
  3.013300  3.122850  0.000000
  3.164410  3.390160  0.000000
  3.241820  3.548770  0.000000
  3.082810  3.232600  0.000000
  2.837910  2.855800  0.000000
  3.151380  3.342120  0.000000
  2.931930  2.977870  0.000000
  3.231110  3.500620  0.000000
  3.000240  3.075270  0.000000
  2.828430  2.828430  0.000000
  3.308810  3.667950  0.000000
  3.072060  3.184020  0.000000
  3.334410  3.725810  0.000000
  3.219920  3.452960  0.000000
  2.907100  2.922720  0.000000
  3.329770  3.699710  0.000000
  3.141210  3.293050  0.000000
  2.990070  3.033070  0.000000
  3.299510  3.612940  0.000000
  2.855800  2.837910  0.000000
  3.059090  3.136540  0.000000
  3.211580  3.404860  0.000000
  2.883320  2.865130  0.000000
  3.130390  3.244290  0.000000
  3.289420  3.564020  0.000000
  2.846140  2.810600  0.000000
  3.353130  3.708980  0.000000
  3.344860  3.681170  0.000000
  3.199220  3.356470  0.000000
  3.048320  3.087850  0.000000
  2.981410  2.983870  0.000000
  3.278870  3.515220  0.000000
  3.119230  3.199830  0.000000
  2.873570  2.819910  0.000000
  3.187860  3.308010  0.000000
  2.962310  2.938350  0.000000
  3.267770  3.466710  0.000000
  3.035250  3.039670  0.000000
  3.105910  3.151730  0.000000
  2.863750  2.792660  0.000000
  3.371760  3.692050  0.000000
  3.256260  3.418940  0.000000
  3.353010  3.635060  0.000000
  2.944740  2.891580  0.000000
  3.368370  3.666880  0.000000
  3.177890  3.259140  0.000000
  3.018910  2.993520  0.000000
  3.335730  3.579540  0.000000
  3.095860  3.102950  0.000000
  3.247180  3.369830  0.000000
  2.890880  2.797900  0.000000
  3.326330  3.530720  0.000000
  3.167550  3.211200  0.000000
  3.390300  3.675030  0.000000
  2.881240  2.774610  0.000000
  3.381910  3.651120  0.000000
  3.010950  2.946760  0.000000
  3.235280  3.322140  0.000000
  2.923530  2.823270  0.000000
  3.315070  3.482150  0.000000
  3.085450  3.054550  0.000000
  3.154150  3.164540  0.000000
  3.302420  3.435800  0.000000
  2.908780  2.783580  0.000000
  2.994010  2.899890  0.000000
  3.225050  3.275360  0.000000
  3.067900  3.002150  0.000000
  3.408760  3.657910  0.000000
  2.898610  2.756460  0.000000
  3.400080  3.630230  0.000000
  3.144880  3.115500  0.000000
  3.294190  3.386700  0.000000
  3.213090  3.229430  0.000000
  3.389810  3.593230  0.000000
  3.371600  3.545770  0.000000
  3.057620  2.962880  0.000000
  2.984190  2.851010  0.000000
  3.132010  3.071380  0.000000
  3.281610  3.338550  0.000000
  3.199710  3.181310  0.000000
  3.362620  3.497150  0.000000
  2.934530  2.772980  0.000000
  3.427140  3.640700  0.000000
  3.419780  3.616670  0.000000
  2.915870  2.738190  0.000000
  2.968230  2.804070  0.000000
  3.350600  3.448820  0.000000
  3.272910  3.289530  0.000000
  3.048420  2.913890  0.000000
  3.123450  3.022240  0.000000
  3.191890  3.132290  0.000000
  3.338000  3.400800  0.000000
  3.261450  3.241210  0.000000
  3.031260  2.867420  0.000000
  2.943530  2.746810  0.000000
  3.104650  2.971550  0.000000
  3.445420  3.623400  0.000000
  3.436460  3.595810  0.000000
  3.180290  3.083840  0.000000
  3.329370  3.352530  0.000000
  2.933020  2.719810  0.000000
  3.248020  3.193970  0.000000
  3.426730  3.558760  0.000000
  3.407130  3.511640  0.000000
  3.088980  2.924630  0.000000
  3.314310  3.304880  0.000000
  3.016550  2.815170  0.000000
  2.979650  2.763060  0.000000
  3.167290  3.036150  0.000000
  3.236430  3.147140  0.000000
  3.398280  3.463220  0.000000
  2.960730  2.728260  0.000000
  3.463620  3.606010  0.000000
  3.456210  3.582030  0.000000
  3.385540  3.415110  0.000000
  3.308660  3.256610  0.000000
  2.950050  2.701330  0.000000
  3.079780  2.877400  0.000000
  3.155840  2.987520  0.000000
  3.227850  3.098640  0.000000
  3.374250  3.366490  0.000000
  3.294790  3.208970  0.000000
  3.064250  2.830000  0.000000
  3.455120  3.525410  0.000000
  3.137890  2.934380  0.000000
  3.481730  3.588530  0.000000
  2.977330  2.705710  0.000000
  3.472490  3.561020  0.000000
  3.214540  3.050680  0.000000
  3.362460  3.318030  0.000000
  3.442320  3.477150  0.000000
  2.966970  2.682740  0.000000
  3.284630  3.160240  0.000000
  3.349980  3.269970  0.000000
  3.126890  2.892740  0.000000
  3.013040  2.728210  0.000000
  3.053350  2.781400  0.000000
  3.203650  3.002030  0.000000
  3.433360  3.428900  0.000000
  3.271980  3.112050  0.000000
  3.499760  3.570950  0.000000
  2.994780  2.690840  0.000000
  3.490380  3.543500  0.000000
  3.419980  3.380990  0.000000
  3.342640  3.222090  0.000000
  3.184620  2.950990  0.000000
  2.983760  2.664050  0.000000
  3.116740  2.843890  0.000000
  3.262510  3.063920  0.000000
  3.410200  3.332460  0.000000
  3.329480  3.174120  0.000000
  3.490240  3.497540  0.000000
  3.517690  3.553290  0.000000
  3.100680  2.796920  0.000000
  3.174250  2.902490  0.000000
  3.397500  3.284350  0.000000
  3.010320  2.668080  0.000000
  3.250040  3.015560  0.000000
  3.511940  3.527610  0.000000
  3.477150  3.442320  0.000000
  3.319860  3.125810  0.000000
  3.000440  2.645250  0.000000
  3.078910  2.743760  0.000000
  3.386280  3.235720  0.000000
  3.159310  2.855200  0.000000
  3.467940  3.394210  0.000000
  3.236270  2.965500  0.000000
  3.309740  3.079630  0.000000
  3.046510  2.684410  0.000000
  3.535530  3.535530  0.000000
  3.024440  2.652960  0.000000
  3.525880  3.508170  0.000000
  3.453970  3.346470  0.000000
  3.377370  3.187570  0.000000
  3.221780  2.917690  0.000000
  3.149140  2.807700  0.000000
  3.017010  2.626340  0.000000
  3.445290  3.298230  0.000000
  3.299790  3.030680  0.000000
  3.367140  3.141510  0.000000
  3.553290  3.517690  0.000000
  3.134320  2.760040  0.000000
  3.208070  2.865800  0.000000
  3.532700  3.460380  0.000000
  3.433470  3.249710  0.000000
  3.547310  3.490650  0.000000
  3.511640  3.407130  0.000000
  3.044970  2.633910  0.000000
  3.284340  2.976870  0.000000
  3.357140  3.092560  0.000000
  3.033450  2.607330  0.000000
  3.502070  3.359140  0.000000
  3.196570  2.822390  0.000000
  3.424750  3.200660  0.000000
  3.270320  2.928950  0.000000
  3.122850  2.711520  0.000000
  3.570950  3.499760  0.000000
  3.344840  3.044320  0.000000
  3.563590  3.477410  0.000000
  3.081680  2.648790  0.000000
  3.492250  3.314670  0.000000
  3.057540  2.614740  0.000000
  3.255230  2.881460  0.000000
  3.477000  3.267170  0.000000
  3.185670  2.773680  0.000000
  3.418100  3.147860  0.000000
  3.049770  2.588220  0.000000
  3.334860  2.996060  0.000000
  3.402810  3.106720  0.000000
  3.588530  3.481730  0.000000
  3.578460  3.454520  0.000000
  3.244170  2.833010  0.000000
  3.170460  2.726330  0.000000
  3.471360  3.218250  0.000000
  3.549320  3.374670  0.000000
  3.571040  3.418570  0.000000
  3.318670  2.940610  0.000000
  3.077820  2.595440  0.000000
  3.529730  3.327780  0.000000
  3.392950  3.057740  0.000000
  3.065970  2.569010  0.000000
  3.147860  2.671280  0.000000
  3.229790  2.785440  0.000000
  3.463340  3.168940  0.000000
  3.303710  2.893180  0.000000
  3.606010  3.463620  0.000000
  3.598120  3.439840  0.000000
  3.382260  3.011420  0.000000
  3.525680  3.278080  0.000000
  3.114720  2.609860  0.000000
  3.090150  2.576110  0.000000
  3.289210  2.845460  0.000000
  3.517190  3.237750  0.000000
  3.218870  2.737720  0.000000
  3.459150  3.119470  0.000000
  3.082050  2.549700  0.000000
  3.371910  2.962550  0.000000
  3.502020  3.190240  0.000000
  3.623400  3.445420  0.000000
  3.440210  3.073590  0.000000
  3.613060  3.418310  0.000000
  3.278430  2.796690  0.000000
  3.204580  2.689870  0.000000
  3.352490  2.903870  0.000000
  3.110200  2.556560  0.000000
  3.579320  3.312320  0.000000
  3.429790  3.024840  0.000000
  3.098010  2.530280  0.000000
  3.614010  3.375110  0.000000
  3.266540  2.751920  0.000000
  3.503570  3.141660  0.000000
  3.640700  3.427140  0.000000
  3.337920  2.856160  0.000000
  3.630230  3.400080  0.000000
  3.192910  2.641300  0.000000
  3.563810  3.249000  0.000000
  3.417790  2.976460  0.000000
  3.121230  2.534490  0.000000
  3.142030  2.557540  0.000000
  3.550660  3.201280  0.000000
  3.251710  2.704230  0.000000
  3.325920  2.811600  0.000000
  3.113850  2.510770  0.000000
  3.500710  3.091830  0.000000
  3.407410  2.928070  0.000000
  3.648290  3.387520  0.000000
  3.657910  3.408760  0.000000
  3.477350  3.040170  0.000000
  3.178620  2.584630  0.000000
  3.548200  3.164180  0.000000
  3.314340  2.763190  0.000000
  3.240760  2.655630  0.000000
  3.139980  2.520390  0.000000
  3.384870  2.866480  0.000000
  3.465820  2.990220  0.000000
  3.129560  2.491150  0.000000
  3.675030  3.390300  0.000000
  3.664280  3.363350  0.000000
  3.300380  2.715410  0.000000
  3.375220  2.825820  0.000000
  3.545370  3.114270  0.000000
  3.226700  2.608490  0.000000
  3.651120  3.321800  0.000000
  3.626570  3.267500  0.000000
  3.449170  2.936350  0.000000
  3.529940  3.065710  0.000000
  3.179320  2.530760  0.000000
  3.153920  2.497640  0.000000
  3.611920  3.216160  0.000000
  3.288480  2.670420  0.000000
  3.362240  2.777320  0.000000
  3.431400  2.883120  0.000000
  3.692050  3.371760  0.000000
  3.145150  2.471440  0.000000
  3.682880  3.347270  0.000000
  3.216050  2.559820  0.000000
  3.599980  3.169760  0.000000
  3.508710  2.994910  0.000000
  3.273800  2.622670  0.000000
  3.348920  2.727160  0.000000
  3.423860  2.836120  0.000000
  3.492760  2.947530  0.000000
  3.173460  2.477600  0.000000
  3.595560  3.125150  0.000000
  3.708980  3.353130  0.000000
  3.697960  3.326290  0.000000
  3.160620  2.451630  0.000000
  3.336290  2.681840  0.000000
  3.578710  3.076690  0.000000
  3.409180  2.789510  0.000000
  3.262730  2.574120  0.000000
  3.687510  3.282130  0.000000
  3.479870  2.892720  0.000000
  3.563860  3.028990  0.000000
  3.668760  3.229130  0.000000
  3.210870  2.490610  0.000000
  3.462000  2.846660  0.000000
  3.188970  2.457610  0.000000
  3.322440  2.634010  0.000000
  3.396750  2.741120  0.000000
  3.725810  3.334410  0.000000
  3.714660  3.307630  0.000000
  3.175960  2.431720  0.000000
  3.252080  2.525570  0.000000
  3.541740  2.957390  0.000000
  3.661740  3.180270  0.000000
  3.307400  2.586400  0.000000
  3.644720  3.134030  0.000000
  3.384320  2.692870  0.000000
  3.453780  2.797480  0.000000
  3.525900  2.910150  0.000000
  3.627430  3.087150  0.000000
  3.202740  2.433740  0.000000
  3.742550  3.315610  0.000000
  3.729750  3.285760  0.000000
  3.191180  2.411720  0.000000
  3.612560  3.040120  0.000000
  3.370000  2.645150  0.000000
  3.444780  2.754460  0.000000
  3.515250  2.862100  0.000000
  3.299700  2.540560  0.000000
  3.726810  3.242380  0.000000
  3.215360  2.416840  0.000000
  3.241920  2.450060  0.000000
  3.596970  2.979450  0.000000
  3.500160  2.814570  0.000000
  3.759200  3.296730  0.000000
  3.356100  2.597420  0.000000
  3.432470  2.706190  0.000000
  3.710950  3.188890  0.000000
  3.751140  3.270750  0.000000
  3.288250  2.496700  0.000000
  3.206270  2.391620  0.000000
  3.693930  3.142070  0.000000
  3.574280  2.919660  0.000000
  3.676650  3.095740  0.000000
  3.556020  2.873850  0.000000
  3.346250  2.556310  0.000000
  3.418630  2.656570  0.000000
  3.493020  2.767420  0.000000
  3.660160  3.053050  0.000000
  3.775750  3.277760  0.000000
  3.764190  3.251150  0.000000
  3.234720  2.397060  0.000000
  3.221230  2.371430  0.000000
  3.404620  2.609180  0.000000
  3.645720  2.995720  0.000000
  3.479970  2.719200  0.000000
  3.548500  2.824940  0.000000
  3.336850  2.507420  0.000000
  3.531420  2.778550  0.000000
  3.766340  3.204150  0.000000
  3.792200  3.258710  0.000000
  3.310780  2.459790  0.000000
  3.272450  2.409130  0.000000
  3.464940  2.672290  0.000000
  3.742870  3.151360  0.000000
  3.393290  2.566780  0.000000
  3.249720  2.376690  0.000000
  3.784340  3.232150  0.000000
  3.725040  3.105890  0.000000
  3.236070  2.351140  0.000000
  3.709740  3.058440  0.000000
  3.643630  2.934800  0.000000
  3.451590  2.625240  0.000000
  3.689990  3.013100  0.000000
  3.593460  2.841490  0.000000
  3.379180  2.519280  0.000000
  3.618080  2.878180  0.000000
  3.528700  2.730180  0.000000
  3.808560  3.239580  0.000000
  3.799390  3.218030  0.000000
  3.262890  2.352490  0.000000
  3.677200  2.966460  0.000000
  3.577790  2.796210  0.000000
  3.250780  2.330760  0.000000
  3.440790  2.576790  0.000000
  3.513690  2.682530  0.000000
  3.369700  2.471650  0.000000
  3.791390  3.161150  0.000000
  3.824820  3.220360  0.000000
  3.812860  3.193930  0.000000
  3.774410  3.113510  0.000000
  3.568580  2.747460  0.000000
  3.290150  2.356150  0.000000
  3.275420  2.336020  0.000000
  3.425970  2.529420  0.000000
  3.498060  2.632230  0.000000
  3.756450  3.067050  0.000000
  3.355490  2.423800  0.000000
  3.265360  2.310290  0.000000
  3.738880  3.020590  0.000000
  3.557490  2.703770  0.000000
  3.720990  2.974040  0.000000
  3.488450  2.591590  0.000000
  3.626550  2.804690  0.000000
  3.840990  3.201060  0.000000
  3.416910  2.487010  0.000000
  3.828900  3.174690  0.000000
  3.291850  2.318770  0.000000
  3.706480  2.927580  0.000000
  3.344660  2.377540  0.000000
  3.471930  2.548100  0.000000
  3.615880  2.763370  0.000000
  3.544520  2.650350  0.000000
  3.279810  2.289730  0.000000
  3.822960  3.129260  0.000000
  3.660840  2.828890  0.000000
  3.690860  2.880110  0.000000
  3.406700  2.438150  0.000000
  3.857060  3.181690  0.000000
  3.805570  3.075350  0.000000
  3.848520  3.156770  0.000000
  3.606230  2.714700  0.000000
  3.788230  3.028500  0.000000
  3.331960  2.326130  0.000000
  3.463780  2.499160  0.000000
  3.537260  2.601410  0.000000
  3.308420  2.294280  0.000000
  3.770460  2.981840  0.000000
  3.294130  2.269080  0.000000
  3.393010  2.390290  0.000000
  3.591470  2.667160  0.000000
  3.755070  2.937900  0.000000
  3.663500  2.778310  0.000000
  3.520670  2.554470  0.000000
  3.873020  3.162230  0.000000
  3.860670  3.135970  0.000000
  3.451220  2.451170  0.000000
  3.739770  2.890380  0.000000
  3.320980  2.269750  0.000000
  3.379880  2.342060  0.000000
  3.510570  2.516520  0.000000
  3.652300  2.729680  0.000000
  3.582100  2.618180  0.000000
  3.854340  3.089690  0.000000
  3.308320  2.248330  0.000000
  3.721550  2.834260  0.000000
  3.836340  3.036880  0.000000
  3.888900  3.142690  0.000000
  3.441110  2.403100  0.000000
  3.491860  2.470320  0.000000
  3.880120  3.117670  0.000000
  3.566490  2.572930  0.000000
  3.819710  2.990030  0.000000
  3.639460  2.677640  0.000000
  3.332740  2.252230  0.000000
  3.360920  2.284080  0.000000
  3.711860  2.785220  0.000000
  3.802180  2.943220  0.000000
  3.322380  2.227500  0.000000
  3.783480  2.897530  0.000000
  3.428200  2.354850  0.000000
  3.904670  3.123070  0.000000
  3.892050  3.096940  0.000000
  3.557460  2.524360  0.000000
  3.700890  2.741300  0.000000
  3.630830  2.628800  0.000000
  3.769500  2.850210  0.000000
  3.488540  2.418230  0.000000
  3.351070  2.231510  0.000000
  3.541150  2.477730  0.000000
  3.686770  2.693510  0.000000
  3.615230  2.581430  0.000000
  3.471370  2.378370  0.000000
  3.336310  2.206580  0.000000
  3.759130  2.801310  0.000000
  3.920340  3.103370  0.000000
  3.428140  2.310250  0.000000
  3.846680  2.951960  0.000000
  3.911570  3.077900  0.000000
  3.896790  3.046610  0.000000
  3.522950  2.431210  0.000000
  3.604550  2.540730  0.000000
  3.676530  2.644680  0.000000
  3.832910  2.903980  0.000000
  3.360280  2.207680  0.000000
  3.749580  2.752500  0.000000
  3.350110  2.185580  0.000000
  3.881620  2.979370  0.000000
  3.818020  2.861600  0.000000
  3.923800  3.061340  0.000000
  3.385050  2.225520  0.000000
  3.935920  3.083590  0.000000
  3.661690  2.598630  0.000000
  3.473430  2.331000  0.000000
  3.590180  2.486750  0.000000
  3.734790  2.704780  0.000000
  3.806620  2.816740  0.000000
  3.525580  2.384670  0.000000
  3.423040  2.251710  0.000000
  3.378850  2.189220  0.000000
  3.651770  2.550090  0.000000
  3.363780  2.164490  0.000000
  3.938380  3.037810  0.000000
  3.951390  3.063740  0.000000
  3.725120  2.656030  0.000000
  3.580390  2.437770  0.000000
  3.796020  2.767950  0.000000
  3.881160  2.915860  0.000000
  3.468830  2.281230  0.000000
  3.636580  2.502940  0.000000
  3.710320  2.608370  0.000000
  3.866310  2.868430  0.000000
  3.782350  2.719980  0.000000
  3.565590  2.391470  0.000000
  3.936250  2.992960  0.000000
  3.391410  2.164200  0.000000
  3.848230  2.822140  0.000000
  3.966770  3.043810  0.000000
  3.377310  2.143310  0.000000
  3.920220  2.946700  0.000000
  3.957440  3.017730  0.000000
  3.699160  2.565690  0.000000
  3.514200  2.302090  0.000000
  3.627640  2.453960  0.000000
  3.771480  2.671250  0.000000
  3.464270  2.231820  0.000000
  3.843760  2.779930  0.000000
  3.431010  2.177380  0.000000
  3.970350  3.001690  0.000000
  3.757260  2.624570  0.000000
  3.982040  3.023800  0.000000
  3.685390  2.513230  0.000000
  3.611760  2.406660  0.000000
  3.409250  2.144140  0.000000
  3.390710  2.122040  0.000000
  3.830430  2.731830  0.000000
  3.559830  2.322390  0.000000
  3.509700  2.252530  0.000000
  3.961110  2.945500  0.000000
  3.746630  2.576070  0.000000
  3.940500  2.905930  0.000000
  3.674730  2.464430  0.000000
  3.890330  2.806260  0.000000
  3.983810  2.977980  0.000000
  3.819960  2.683170  0.000000
  3.416460  2.120650  0.000000
  3.997210  3.003710  0.000000
  3.920200  2.855610  0.000000
  3.403980  2.100700  0.000000
  3.607890  2.351310  0.000000
  3.732140  2.528580  0.000000
  3.554390  2.272750  0.000000
  3.660590  2.416930  0.000000
  3.805790  2.635290  0.000000
  3.445570  2.132770  0.000000
  3.505070  2.203020  0.000000
  3.878540  2.744120  0.000000
  3.998750  2.957880  0.000000
  4.012290  2.983550  0.000000
  3.432800  2.103620  0.000000
  3.794240  2.591060  0.000000
  3.722270  2.479760  0.000000
  3.417110  2.079270  0.000000
  3.866820  2.697870  0.000000
  3.990330  2.911930  0.000000
  3.600160  2.292850  0.000000
  3.655690  2.365880  0.000000
  3.549700  2.222990  0.000000
  3.969960  2.859990  0.000000
  3.780800  2.539690  0.000000
  3.499360  2.153370  0.000000
  3.853080  2.650710  0.000000
  4.027260  2.963310  0.000000
  3.949000  2.814800  0.000000
  3.709160  2.428320  0.000000
  4.017360  2.938720  0.000000
  3.444720  2.078290  0.000000
  3.430110  2.057760  0.000000
  3.926290  2.758800  0.000000
  3.644490  2.317290  0.000000
  3.769650  2.495590  0.000000
  3.841910  2.602240  0.000000
  3.595100  2.243750  0.000000
  3.474920  2.092150  0.000000
  3.545180  2.173210  0.000000
  4.028330  2.917470  0.000000
  4.042120  2.943000  0.000000
  3.915220  2.710210  0.000000
  3.454860  2.060250  0.000000
  3.703440  2.378730  0.000000
  3.753640  2.448300  0.000000
  3.827970  2.554490  0.000000
  3.442970  2.036170  0.000000
  3.901520  2.662180  0.000000
  3.998560  2.819870  0.000000
  3.641360  2.263800  0.000000
  4.026460  2.870460  0.000000
  3.692030  2.332330  0.000000
  3.974170  2.773090  0.000000
  3.590520  2.194240  0.000000
  4.056890  2.922610  0.000000
  3.817350  2.505780  0.000000
  4.046780  2.896820  0.000000
  3.539600  2.123800  0.000000
  3.889690  2.616750  0.000000
  3.749140  2.398820  0.000000
  3.471840  2.038550  0.000000
  3.455690  2.014490  0.000000
  3.962470  2.724520  0.000000
  3.802540  2.458340  0.000000
  3.876500  2.566220  0.000000
  3.734910  2.353400  0.000000
  3.635110  2.214230  0.000000
  4.060570  2.881470  0.000000
  4.071550  2.902150  0.000000
  3.687490  2.282670  0.000000
  3.949080  2.677000  0.000000
  3.584770  2.144570  0.000000
  3.480730  2.017410  0.000000
  3.510640  2.046520  0.000000
  3.794510  2.419650  0.000000
  3.468280  1.992740  0.000000
  3.864970  2.520910  0.000000
  3.937510  2.628550  0.000000
  4.003070  2.740970  0.000000
  4.026750  2.779460  0.000000
  4.071940  2.856300  0.000000
  3.778530  2.372420  0.000000
  4.086110  2.881610  0.000000
  4.055280  2.822940  0.000000
  3.732560  2.304000  0.000000
  3.681110  2.233720  0.000000
  3.630650  2.164420  0.000000
  3.851280  2.469150  0.000000
  3.579030  2.094910  0.000000
  3.923970  2.580610  0.000000
  3.497180  1.994760  0.000000
  3.480740  1.970910  0.000000
  3.840930  2.430200  0.000000
  4.009970  2.696680  0.000000
  4.088640  2.839140  0.000000
  4.100570  2.861000  0.000000
  3.912800  2.531980  0.000000
  3.774030  2.323220  0.000000
  3.725780  2.254730  0.000000
  3.985410  2.642720  0.000000
  3.676570  2.183970  0.000000
  3.624910  2.114780  0.000000
  3.509650  1.972740  0.000000
  3.536080  2.002250  0.000000
  3.827320  2.382700  0.000000
  3.573300  2.045240  0.000000
  3.897360  2.487100  0.000000
  3.493050  1.949000  0.000000
  4.076500  2.783610  0.000000
  4.054530  2.738780  0.000000
  3.972410  2.592810  0.000000
  3.811190  2.344400  0.000000
  4.100490  2.815150  0.000000
  4.114920  2.840320  0.000000
  3.771500  2.274330  0.000000
  3.721870  2.205040  0.000000
  3.887950  2.438550  0.000000
  3.670740  2.134700  0.000000
  3.518240  1.946540  0.000000
  3.619180  2.065110  0.000000
  3.505230  1.927010  0.000000
  3.961440  2.542850  0.000000
  4.114610  2.794470  0.000000
  4.129170  2.819570  0.000000
  3.875750  2.394520  0.000000
  3.946020  2.495450  0.000000
  3.549140  1.955440  0.000000
  3.816010  2.296540  0.000000
  3.765710  2.224730  0.000000
  4.020100  2.606890  0.000000
  4.046940  2.652500  0.000000
  3.715770  2.155530  0.000000
  4.104350  2.748890  0.000000
  3.534160  1.928490  0.000000
  3.666030  2.084950  0.000000
  3.860050  2.347110  0.000000
  3.517270  1.904950  0.000000
  4.081900  2.697810  0.000000
  3.613440  2.015440  0.000000
  3.935470  2.453270  0.000000
  4.143310  2.798750  0.000000
  4.007250  2.558680  0.000000
  4.132430  2.774570  0.000000
  3.813090  2.246690  0.000000
  3.761530  2.175380  0.000000
  3.923580  2.404970  0.000000
  3.992630  2.512470  0.000000
  3.711440  2.105820  0.000000
  3.544030  1.902760  0.000000
  3.529160  1.882820  0.000000
  3.659330  2.035310  0.000000
  4.142540  2.752900  0.000000
  4.157350  2.777850  0.000000
  3.607710  1.965770  0.000000
  3.908910  2.357440  0.000000
  3.982750  2.463850  0.000000
  4.075410  2.614290  0.000000
  4.131820  2.708350  0.000000
  3.554290  1.884790  0.000000
  3.857780  2.269090  0.000000
  3.806770  2.196400  0.000000
  4.055800  2.570250  0.000000
  3.756740  2.126910  0.000000
  4.108860  2.656580  0.000000
  3.701080  2.053940  0.000000
  3.540930  1.860600  0.000000
  3.583320  1.908600  0.000000
  3.893980  2.309780  0.000000
  3.968560  2.416300  0.000000
  4.171280  2.756890  0.000000
  3.653590  1.985630  0.000000
  4.160160  2.733010  0.000000
  4.041220  2.522510  0.000000
  3.956650  2.368650  0.000000
  3.569880  1.861530  0.000000
  4.030120  2.479540  0.000000
  3.802400  2.146630  0.000000
  3.750810  2.077280  0.000000
  3.552550  1.838320  0.000000
  4.170050  2.711050  0.000000
  4.185110  2.735850  0.000000
  4.098970  2.582000  0.000000
  3.699480  2.005500  0.000000
  3.647860  1.935960  0.000000
  3.942670  2.320890  0.000000
  4.158890  2.666740  0.000000
  4.017150  2.427690  0.000000
  4.088170  2.538730  0.000000
  3.576020  1.837740  0.000000
  4.135400  2.615070  0.000000
  3.873990  2.208650  0.000000
  3.739000  2.023760  0.000000
  3.564030  1.815960  0.000000
  3.796730  2.097020  0.000000
  3.600660  1.856370  0.000000
  4.198830  2.714740  0.000000
  4.187470  2.691010  0.000000
  4.004610  2.381970  0.000000
  3.693740  1.955830  0.000000
  4.077600  2.490200  0.000000
  3.642130  1.886290  0.000000
  3.936440  2.262170  0.000000
  3.864110  2.160720  0.000000
  3.592100  1.819930  0.000000
  3.991220  2.332610  0.000000
  4.197140  2.668920  0.000000
  4.063350  2.442620  0.000000
  4.212440  2.693570  0.000000
  3.575370  1.793530  0.000000
  3.784530  2.043240  0.000000
  3.842590  2.116910  0.000000
  3.921320  2.224270  0.000000
  3.739630  1.975700  0.000000
  4.150020  2.566940  0.000000
  3.688010  1.906160  0.000000
  4.053560  2.393950  0.000000
  4.193330  2.621750  0.000000
  4.125190  2.505250  0.000000
  3.982470  2.281540  0.000000
  3.604330  1.793910  0.000000
  3.911550  2.175900  0.000000
  4.225950  2.672330  0.000000
  3.586560  1.771030  0.000000
  3.632210  1.822050  0.000000
  4.214300  2.647200  0.000000
  3.776970  1.994290  0.000000
  3.839110  2.065240  0.000000
  4.039750  2.346950  0.000000
  4.111950  2.453980  0.000000
  3.733890  1.926030  0.000000
  3.682280  1.856490  0.000000
  3.901410  2.127700  0.000000
  3.976350  2.232130  0.000000
  4.227320  2.630970  0.000000
  4.239350  2.651020  0.000000
  3.613990  1.767630  0.000000
  3.597620  1.748460  0.000000
  4.100910  2.409750  0.000000
  4.028710  2.298250  0.000000
  3.956770  2.189940  0.000000
  3.828050  2.016530  0.000000
  3.779770  1.945900  0.000000
  3.888280  2.079510  0.000000
  3.728160  1.876360  0.000000
  4.086370  2.361970  0.000000
  4.236970  2.605230  0.000000
  3.620700  1.747360  0.000000
  4.218650  2.570990  0.000000
  4.187570  2.517660  0.000000
  4.159050  2.469960  0.000000
  4.252640  2.629640  0.000000
  3.676540  1.806820  0.000000
  4.021910  2.252200  0.000000
  3.645870  1.769220  0.000000
  3.608540  1.725820  0.000000
  3.946390  2.141080  0.000000
  3.817500  1.967710  0.000000
  3.875650  2.031180  0.000000
  4.076340  2.313250  0.000000
  4.148440  2.421370  0.000000
  4.007440  2.204420  0.000000
  3.774040  1.896230  0.000000
  4.252670  2.586710  0.000000
  4.265830  2.608200  0.000000
  3.722420  1.826690  0.000000
  3.936470  2.092120  0.000000
  3.637500  1.725660  0.000000
  3.619310  1.703120  0.000000
  4.134960  2.373500  0.000000
  4.065530  2.264450  0.000000
  3.993790  2.156410  0.000000
  3.865000  1.983140  0.000000
  3.819920  1.916100  0.000000
  4.262980  2.562430  0.000000
  3.923780  2.044570  0.000000
  4.278910  2.586690  0.000000
  4.123770  2.328880  0.000000
  3.700980  1.766460  0.000000
  3.644090  1.702330  0.000000
  4.247580  2.524290  0.000000
  4.196050  2.436430  0.000000
  3.629940  1.680340  0.000000
  4.055840  2.215580  0.000000
  3.983780  2.108150  0.000000
  3.852250  1.934830  0.000000
  3.674820  1.722740  0.000000
  4.224920  2.468530  0.000000
  4.109410  2.281040  0.000000
  4.275830  2.540940  0.000000
  4.183380  2.385700  0.000000
  3.913220  1.995740  0.000000
  4.291880  2.565110  0.000000
  4.042130  2.168870  0.000000
  3.758130  1.797840  0.000000
  3.970510  2.060010  0.000000
  3.658900  1.679810  0.000000
  3.640420  1.657500  0.000000
  4.171360  2.340650  0.000000
  3.797850  1.828170  0.000000
  4.102790  2.232240  0.000000
  3.900420  1.948080  0.000000
  4.288570  2.519380  0.000000
  4.032110  2.119970  0.000000
  4.304730  2.543470  0.000000
  3.837710  1.858330  0.000000
  3.724970  1.724340  0.000000
  3.665240  1.656410  0.000000
  4.157970  2.292730  0.000000
  3.960730  2.011170  0.000000
  4.238900  2.419130  0.000000
  4.088100  2.184910  0.000000
  4.274870  2.476490  0.000000
  3.650770  1.634600  0.000000
  3.696400  1.676420  0.000000
  4.018780  2.072790  0.000000
  3.889380  1.899350  0.000000
  4.143220  2.245040  0.000000
  4.317490  2.521770  0.000000
  4.304950  2.498740  0.000000
  4.221630  2.359110  0.000000
  3.947460  1.963020  0.000000
  4.079380  2.136010  0.000000
  3.804290  1.778670  0.000000
  3.679720  1.633700  0.000000
  3.660960  1.611630  0.000000
  4.008160  2.024000  0.000000
  4.205290  2.304200  0.000000
  3.843830  1.808730  0.000000
  4.136070  2.197360  0.000000
  3.878760  1.850680  0.000000
  4.313720  2.476070  0.000000
  3.774830  1.722240  0.000000
  4.330130  2.500000  0.000000
  4.065320  2.088210  0.000000
  3.937060  1.914280  0.000000
  3.747800  1.680280  0.000000
  4.300040  2.432590  0.000000
  4.191830  2.256380  0.000000
  3.689910  1.610550  0.000000
  3.995750  1.975790  0.000000
  3.671020  1.588590  0.000000
  4.273810  2.382160  0.000000
  4.122960  2.149220  0.000000
  3.719170  1.637250  0.000000
  4.055670  2.039400  0.000000
  4.342660  2.478170  0.000000
  3.924380  1.866520  0.000000
  4.329990  2.455120  0.000000
  4.182470  2.214780  0.000000
  3.814210  1.726260  0.000000
  4.257040  2.322830  0.000000
  3.984600  1.929610  0.000000
  3.850530  1.760530  0.000000
  4.113600  2.100510  0.000000
  3.697490  1.584050  0.000000
  3.680930  1.565490  0.000000
  4.338430  2.432510  0.000000
  4.043890  1.989100  0.000000
  4.355080  2.456270  0.000000
  3.886870  1.786030  0.000000
  4.240240  2.268560  0.000000
  3.919080  1.824110  0.000000
  4.174490  2.165530  0.000000
  3.971500  1.881400  0.000000
  4.101120  2.053250  0.000000
  3.706130  1.565250  0.000000
  4.297580  2.339000  0.000000
  3.690690  1.542340  0.000000
  4.229390  2.226070  0.000000
  3.735790  1.589200  0.000000
  4.331560  2.386340  0.000000
  4.032270  1.942540  0.000000
  4.159990  2.118080  0.000000
  3.791150  1.642280  0.000000
  4.367390  2.434320  0.000000
  4.356210  2.411550  0.000000
  3.825870  1.676370  0.000000
  4.091790  2.004200  0.000000
  3.862110  1.712140  0.000000
  4.216060  2.178330  0.000000
  4.147070  2.069920  0.000000
  3.897990  1.745580  0.000000
  3.719610  1.540710  0.000000
  4.019770  1.894290  0.000000
  3.700310  1.519120  0.000000
  4.364060  2.392280  0.000000
  3.936030  1.777590  0.000000
  4.379590  2.412300  0.000000
  4.306110  2.291070  0.000000
  3.967520  1.813840  0.000000
  3.997960  1.851220  0.000000
  4.080090  1.955330  0.000000
  4.276770  2.236600  0.000000
  4.208010  2.130540  0.000000
  3.725510  1.518560  0.000000
  4.138850  2.020880  0.000000
  3.709780  1.495840  0.000000
  4.353220  2.334860  0.000000
  3.802960  1.593710  0.000000
  4.262480  2.189070  0.000000
  4.374680  2.366710  0.000000
  4.391680  2.390220  0.000000
  4.195110  2.083270  0.000000
  3.839110  1.628180  0.000000
  3.759910  1.539760  0.000000
  3.874190  1.663650  0.000000
  4.126020  1.972680  0.000000
  3.910120  1.698260  0.000000
  4.072770  1.895790  0.000000
  4.254740  2.147240  0.000000
  3.943750  1.728480  0.000000
  3.976030  1.766590  0.000000
  3.738680  1.493850  0.000000
  3.719110  1.472500  0.000000
  4.008820  1.804250  0.000000
  4.389070  2.347610  0.000000
  4.184970  2.034370  0.000000
  4.403660  2.368080  0.000000
  4.307680  2.209420  0.000000
  4.045580  1.837480  0.000000
  4.241470  2.099150  0.000000
  4.337530  2.244000  0.000000
  4.117910  1.917240  0.000000
  3.814910  1.545170  0.000000
  4.377330  2.290480  0.000000
  3.747990  1.470330  0.000000
  4.174070  1.986060  0.000000
  3.728280  1.449100  0.000000
  4.398280  2.322540  0.000000
  3.850940  1.579820  0.000000
  4.415530  2.345880  0.000000
  3.778240  1.495910  0.000000
  4.301520  2.162350  0.000000
  3.887460  1.615900  0.000000
  3.921760  1.649750  0.000000
  4.232320  2.050240  0.000000
  3.958040  1.684110  0.000000
  3.992930  1.719800  0.000000
  4.163200  1.937510  0.000000
  4.024820  1.756950  0.000000
  3.753830  1.444970  0.000000
  4.113970  1.867490  0.000000
  4.289660  2.112070  0.000000
  3.737320  1.425650  0.000000
  4.412650  2.303210  0.000000
  4.427280  2.323620  0.000000
  4.095000  1.831550  0.000000
  4.064540  1.792180  0.000000
  4.221760  2.000690  0.000000
  4.357010  2.190200  0.000000
  3.789360  1.456650  0.000000
  4.279460  2.066730  0.000000
  3.828120  1.497500  0.000000
  4.400290  2.246230  0.000000
  4.421450  2.278130  0.000000
  3.864490  1.531730  0.000000
  3.766170  1.423120  0.000000
  3.746200  1.402140  0.000000
  4.438920  2.301300  0.000000
  3.899330  1.567370  0.000000
  4.163850  1.892270  0.000000
  4.210430  1.953160  0.000000
  3.935380  1.601780  0.000000
  3.970000  1.637120  0.000000
  4.337540  2.126100  0.000000
  4.266530  2.018480  0.000000
  4.006100  1.671660  0.000000
  4.037470  1.709650  0.000000
  4.200160  1.914610  0.000000
  4.435050  2.258590  0.000000
  4.074470  1.743190  0.000000
  4.450450  2.278920  0.000000
  3.754940  1.378570  0.000000
  3.775040  1.399430  0.000000
  4.326800  2.079890  0.000000
  4.111340  1.782650  0.000000
  4.155300  1.839400  0.000000
  4.255920  1.971000  0.000000
  3.802980  1.411030  0.000000
  3.842400  1.450340  0.000000
  4.441210  2.233180  0.000000
  3.876000  1.483310  0.000000
  3.912910  1.519920  0.000000
  4.314730  2.031590  0.000000
  4.423750  2.195440  0.000000
  4.461870  2.256480  0.000000
  3.763520  1.354950  0.000000
  3.783760  1.375680  0.000000
  3.946610  1.553220  0.000000
  4.393670  2.140170  0.000000
  3.981470  1.589000  0.000000
  4.248990  1.921770  0.000000
  4.017850  1.623100  0.000000
  4.049220  1.659800  0.000000
  4.300670  1.990110  0.000000
  4.374350  2.093200  0.000000
  4.085080  1.694600  0.000000
  4.455350  2.211100  0.000000
  4.473170  2.233990  0.000000
  4.232560  1.877390  0.000000
  3.771960  1.331280  0.000000
  3.792330  1.351880  0.000000
  4.121580  1.727230  0.000000
  3.815060  1.374020  0.000000
  4.362250  2.044850  0.000000
  4.157120  1.762350  0.000000
  3.849080  1.398000  0.000000
  4.295300  1.940730  0.000000
  3.890070  1.435390  0.000000
  4.466430  2.188640  0.000000
  3.924490  1.471340  0.000000
  4.484360  2.211440  0.000000
  4.196050  1.792010  0.000000
  3.960710  1.505460  0.000000
  4.226220  1.829110  0.000000
  3.994860  1.540880  0.000000
  3.780250  1.307550  0.000000
  4.281190  1.900620  0.000000
  3.798780  1.324630  0.000000
  4.350120  1.996510  0.000000
  4.027820  1.574150  0.000000
  4.420460  2.097540  0.000000
  4.062380  1.610540  0.000000
  4.455950  2.144030  0.000000
  4.097320  1.646240  0.000000
  4.331300  1.950750  0.000000
  4.401460  2.052260  0.000000
  4.132970  1.680620  0.000000
  4.495440  2.188840  0.000000
  4.481090  2.165150  0.000000
  3.788390  1.283770  0.000000
  3.809020  1.304120  0.000000
  4.169790  1.714140  0.000000
  3.840360  1.328340  0.000000
  4.389890  2.006000  0.000000
  4.205050  1.748680  0.000000
  3.901170  1.387340  0.000000
  4.324910  1.904030  0.000000
  3.938590  1.424340  0.000000
  4.490530  2.146850  0.000000
  4.236560  1.780510  0.000000
  3.971360  1.456840  0.000000
  4.506400  2.166180  0.000000
  4.005690  1.492890  0.000000
  4.304180  1.859200  0.000000
  3.796380  1.259950  0.000000
  4.042510  1.526420  0.000000
  3.815130  1.276790  0.000000
  4.380060  1.959140  0.000000
  4.076450  1.562800  0.000000
  4.474830  2.098830  0.000000
  4.110570  1.598080  0.000000
  4.456800  2.060580  0.000000
  4.284920  1.813100  0.000000
  4.145960  1.633200  0.000000
  4.498970  2.120930  0.000000
  4.517250  2.143460  0.000000
  4.363020  1.912270  0.000000
  4.179710  1.665350  0.000000
  4.442220  2.017540  0.000000
  3.804230  1.236070  0.000000
  3.825100  1.256150  0.000000
  4.215090  1.700360  0.000000
  3.856740  1.279980  0.000000
  3.915590  1.339540  0.000000
  3.949720  1.375670  0.000000
  4.252470  1.733330  0.000000
  4.509590  2.098250  0.000000
  4.427360  1.973680  0.000000
  4.353120  1.865830  0.000000
  3.986230  1.409390  0.000000
  4.527990  2.120690  0.000000
  4.019670  1.445060  0.000000
  4.053970  1.480510  0.000000
  4.090140  1.514970  0.000000
  3.811920  1.212140  0.000000
  3.832920  1.232090  0.000000
  4.507180  2.071650  0.000000
  4.334460  1.819610  0.000000
  4.124920  1.550800  0.000000
  4.158190  1.584860  0.000000
  4.416440  1.925020  0.000000
  4.303230  1.768130  0.000000
  4.538610  2.097870  0.000000
  4.194910  1.618670  0.000000
  4.226960  1.652020  0.000000
  3.836980  1.209530  0.000000
  4.400420  1.880020  0.000000
  4.474760  1.986880  0.000000
  3.819460  1.188170  0.000000
  4.503040  2.025820  0.000000
  3.867390  1.233240  0.000000
  4.263080  1.686520  0.000000
  3.919950  1.285480  0.000000
  3.964180  1.329080  0.000000
  4.530490  2.052740  0.000000
  4.297690  1.722430  0.000000
  3.996150  1.360690  0.000000
  4.029980  1.397270  0.000000
  4.549110  2.074990  0.000000
  4.065220  1.432490  0.000000
  4.389220  1.831450  0.000000
  4.101750  1.466380  0.000000
  4.135390  1.500640  0.000000
  3.826850  1.164140  0.000000
  3.848100  1.183830  0.000000
  4.170030  1.536620  0.000000
  4.478730  1.939240  0.000000
  4.542410  2.033360  0.000000
  4.371460  1.785110  0.000000
  4.205550  1.569900  0.000000
  4.559500  2.052060  0.000000
  4.452970  1.889450  0.000000
  4.241470  1.604370  0.000000
  4.275330  1.640130  0.000000
  3.852400  1.161940  0.000000
  3.834090  1.140080  0.000000
  4.431810  1.841280  0.000000
  4.345040  1.722830  0.000000
  3.931610  1.236180  0.000000
  3.974000  1.280240  0.000000
  4.526980  1.977000  0.000000
  4.008790  1.315920  0.000000
  4.311070  1.674380  0.000000
  4.550930  2.007020  0.000000
  4.044870  1.350290  0.000000
  3.887690  1.182650  0.000000
  4.077500  1.384200  0.000000
  4.569770  2.029080  0.000000
  4.113900  1.418340  0.000000
  4.149800  1.452980  0.000000
  4.420250  1.794170  0.000000
  4.183700  1.488580  0.000000
  3.841170  1.115960  0.000000
  3.865270  1.138990  0.000000
  4.219960  1.522940  0.000000
  4.563750  1.986830  0.000000
  4.579930  2.006050  0.000000
  4.252610  1.555850  0.000000
  4.479500  1.855990  0.000000
  4.403760  1.747070  0.000000
  4.510930  1.895150  0.000000
  4.286820  1.592230  0.000000
  3.952120  1.199090  0.000000
  4.323180  1.626270  0.000000
  3.848110  1.091810  0.000000
  3.987410  1.233130  0.000000
  3.869730  1.111090  0.000000
  4.022440  1.268530  0.000000
  4.548320  1.930240  0.000000
  4.570910  1.961090  0.000000
  4.056010  1.301720  0.000000
  4.386990  1.699970  0.000000
  4.359120  1.660900  0.000000
  4.090010  1.336210  0.000000
  4.589970  1.982970  0.000000
  4.124930  1.369680  0.000000
  4.158990  1.405990  0.000000
  4.481300  1.810940  0.000000
  4.194720  1.440670  0.000000
  3.907050  1.122960  0.000000
  3.854890  1.067610  0.000000
  4.231410  1.474330  0.000000
  4.455710  1.759060  0.000000
  3.880820  1.087870  0.000000
  4.583850  1.940560  0.000000
  4.599900  1.959830  0.000000
  4.267690  1.508440  0.000000
  3.954810  1.156170  0.000000
  4.301010  1.544350  0.000000
  4.529790  1.849640  0.000000
  4.334590  1.577640  0.000000
  3.999060  1.187340  0.000000
  4.566640  1.884920  0.000000
  3.861530  1.043370  0.000000
  4.035760  1.221170  0.000000
  4.371200  1.612410  0.000000
  3.883390  1.062370  0.000000
  4.590420  1.914970  0.000000
  4.069330  1.253650  0.000000
  4.436730  1.696280  0.000000
  4.104190  1.288810  0.000000
  4.408310  1.655290  0.000000
  4.609710  1.936650  0.000000
  4.137690  1.323010  0.000000
  4.173570  1.359050  0.000000
  4.503850  1.772500  0.000000
  4.206180  1.392220  0.000000
  4.240440  1.428540  0.000000
  3.868010  1.019080  0.000000
  3.921730  1.071400  0.000000
  4.602980  1.894420  0.000000
  4.278410  1.459810  0.000000
  3.894140  1.039050  0.000000
  4.619400  1.913420  0.000000
  4.311970  1.496600  0.000000
  3.966860  1.106450  0.000000
  4.548180  1.803930  0.000000
  4.349770  1.531620  0.000000
  4.010400  1.138770  0.000000
  4.584630  1.839370  0.000000
  4.385390  1.566680  0.000000
  4.046660  1.172450  0.000000
  4.494140  1.708420  0.000000
  3.874330  0.994760  0.000000
  4.609470  1.868650  0.000000
  4.083320  1.206000  0.000000
  3.896430  1.013490  0.000000
  4.117290  1.240770  0.000000
  4.628970  1.890140  0.000000
  4.152150  1.275420  0.000000
  4.424330  1.603190  0.000000
  4.185920  1.310850  0.000000
  4.221250  1.344830  0.000000
  4.254530  1.380640  0.000000
  4.462430  1.636440  0.000000
  4.290990  1.414760  0.000000
  3.933740  1.024600  0.000000
  4.621670  1.848080  0.000000
  3.880510  0.970400  0.000000
  4.326400  1.448930  0.000000
  4.638430  1.866810  0.000000
  3.906510  0.990600  0.000000
  4.566120  1.758040  0.000000
  4.597600  1.796800  0.000000
  4.362550  1.483360  0.000000
  3.987920  1.059440  0.000000
  4.019250  1.089940  0.000000
  4.397880  1.518280  0.000000
  4.055920  1.123840  0.000000
  4.510770  1.661280  0.000000
  4.125490  1.192860  0.000000
  4.628050  1.822140  0.000000
  4.093030  1.157260  0.000000
  4.543280  1.699220  0.000000
  4.434370  1.554220  0.000000
  3.886530  0.946000  0.000000
  4.161750  1.227220  0.000000
  3.908860  0.964450  0.000000
  4.647770  1.843430  0.000000
  4.196050  1.262960  0.000000
  4.229620  1.296530  0.000000
  4.265030  1.332900  0.000000
  4.471740  1.587340  0.000000
  4.302070  1.366070  0.000000
  4.637170  1.798820  0.000000
  3.945170  0.975880  0.000000
  4.337180  1.401460  0.000000
  4.509590  1.619890  0.000000
  3.892390  0.921560  0.000000
  4.656990  1.820010  0.000000
  3.918310  0.941840  0.000000
  4.374020  1.434780  0.000000
  3.997800  1.011840  0.000000
  4.409340  1.469950  0.000000
  4.067010  1.075330  0.000000
  4.032240  1.039480  0.000000
  4.625430  1.748540  0.000000
  4.103210  1.108370  0.000000
  4.137650  1.144560  0.000000
  4.445740  1.504110  0.000000
  4.559900  1.652200  0.000000
  4.173220  1.178600  0.000000
  3.898110  0.897080  0.000000
  4.666100  1.796540  0.000000
  4.207830  1.214420  0.000000
  4.592230  1.689670  0.000000
  4.651760  1.773790  0.000000
  3.920670  0.915250  0.000000
  4.481800  1.538650  0.000000
  4.243940  1.248730  0.000000
  4.278090  1.284680  0.000000
  4.313280  1.319940  0.000000
  4.655050  1.752040  0.000000
  4.349750  1.353220  0.000000
  3.956240  0.927900  0.000000
  4.526060  1.571830  0.000000
  4.675080  1.773020  0.000000
  4.384940  1.388590  0.000000
  3.903670  0.872570  0.000000
  3.929690  0.892710  0.000000
  4.006220  0.962840  0.000000
  4.421620  1.421640  0.000000
  4.044110  0.993740  0.000000
  4.456820  1.456460  0.000000
  4.114670  1.063880  0.000000
  4.080720  1.027500  0.000000
  4.663810  1.728580  0.000000
  4.576210  1.604980  0.000000
  4.185600  1.133400  0.000000
  4.151810  1.096800  0.000000
  4.641700  1.690210  0.000000
  4.683950  1.749460  0.000000
  4.493460  1.490090  0.000000
  4.221700  1.167190  0.000000
  4.608920  1.642560  0.000000
  3.909070  0.848030  0.000000
  4.254950  1.200150  0.000000
  3.931860  0.865910  0.000000
  4.524030  1.522220  0.000000
  4.290730  1.236740  0.000000
  4.325600  1.271670  0.000000
  4.361390  1.306510  0.000000
  4.676100  1.705680  0.000000
  4.397590  1.340330  0.000000
  3.967600  0.877520  0.000000
  4.692700  1.725860  0.000000
  3.914320  0.823450  0.000000
  4.432260  1.372950  0.000000
  3.940750  0.843190  0.000000
  4.017640  0.914440  0.000000
  4.053180  0.949220  0.000000
  4.467710  1.408160  0.000000
  4.125770  1.015220  0.000000
  4.091860  0.979590  0.000000
  4.680980  1.681530  0.000000
  4.162140  1.049400  0.000000
  4.592970  1.557920  0.000000
  4.197270  1.084930  0.000000
  4.504500  1.441840  0.000000
  4.701330  1.702210  0.000000
  4.625220  1.596070  0.000000
  4.233260  1.118760  0.000000
  4.659730  1.641330  0.000000
  3.919420  0.798840  0.000000
  4.269200  1.152260  0.000000
  4.541190  1.475630  0.000000
  3.942430  0.816440  0.000000
  4.303520  1.188430  0.000000
  4.572730  1.512570  0.000000
  4.338920  1.223540  0.000000
  4.373890  1.258950  0.000000
  4.409060  1.291780  0.000000
  4.693290  1.658100  0.000000
  4.709840  1.678520  0.000000
  3.979240  0.827780  0.000000
  3.924360  0.774200  0.000000
  4.444590  1.325100  0.000000
  3.947480  0.791650  0.000000
  4.027350  0.866060  0.000000
  4.062820  0.900360  0.000000
  4.480360  1.359830  0.000000
  4.099830  0.933670  0.000000
  4.134830  0.969220  0.000000
  4.513450  1.397020  0.000000
  4.170730  1.003850  0.000000
  4.697670  1.634310  0.000000
  4.210510  1.036870  0.000000
  4.245130  1.072740  0.000000
  4.641060  1.549410  0.000000
  4.718230  1.654790  0.000000
  4.551440  1.427910  0.000000
  4.281050  1.107360  0.000000
  3.948970  0.768770  0.000000
  3.929150  0.749530  0.000000
  4.584000  1.465320  0.000000
  4.317790  1.141110  0.000000
  4.682150  1.590590  0.000000
  4.351140  1.175200  0.000000
  4.386310  1.210750  0.000000
  3.986760  0.786510  0.000000
  4.422740  1.244920  0.000000
  4.711360  1.610660  0.000000
  4.726500  1.631010  0.000000
  4.459530  1.278720  0.000000
  3.933780  0.724820  0.000000
  4.493280  1.315180  0.000000
  4.035250  0.816250  0.000000
  3.957120  0.741980  0.000000
  4.528410  1.349540  0.000000
  4.148220  0.921540  0.000000
  4.643660  1.495850  0.000000
  4.111530  0.884390  0.000000
  4.182360  0.955340  0.000000
  4.217390  0.990970  0.000000
  4.077630  0.848070  0.000000
  4.715850  1.590210  0.000000
  4.562240  1.386290  0.000000
  4.256390  1.025520  0.000000
  4.734650  1.607200  0.000000
  4.293180  1.059320  0.000000
  4.690000  1.539550  0.000000
  4.598750  1.417970  0.000000
  3.958320  0.719090  0.000000
  3.938260  0.700090  0.000000
  4.328270  1.092330  0.000000
  4.363180  1.126780  0.000000
  4.628790  1.447460  0.000000
  4.398990  1.161060  0.000000
  4.721820  1.563170  0.000000
  4.434170  1.196450  0.000000
  3.996330  0.736350  0.000000
  4.742680  1.583340  0.000000
  4.470240  1.229930  0.000000
  3.942580  0.675330  0.000000
  4.506110  1.264630  0.000000
  3.966130  0.692200  0.000000
  4.048200  0.768710  0.000000
  4.570820  1.337140  0.000000
  4.542670  1.298600  0.000000
  4.160160  0.873060  0.000000
  4.729630  1.539380  0.000000
  4.196120  0.907430  0.000000
  4.230600  0.942780  0.000000
  4.126240  0.836670  0.000000
  4.092300  0.800350  0.000000
  4.750590  1.559440  0.000000
  4.268570  0.975580  0.000000
  4.608870  1.369420  0.000000
  4.304100  1.010690  0.000000
  4.673880  1.448170  0.000000
  4.340570  1.043910  0.000000
  3.946740  0.650550  0.000000
  4.713820  1.493930  0.000000
  4.646200  1.402530  0.000000
  4.376310  1.078640  0.000000
  3.970400  0.667270  0.000000
  4.411170  1.114340  0.000000
  4.447320  1.148650  0.000000
  4.740850  1.514070  0.000000
  4.758380  1.535510  0.000000
  4.005260  0.686070  0.000000
  4.481730  1.182490  0.000000
  4.518310  1.216520  0.000000
  3.950750  0.625740  0.000000
  3.971320  0.639730  0.000000
  4.060300  0.721150  0.000000
  4.553500  1.249880  0.000000
  4.749330  1.494960  0.000000
  4.241880  0.894700  0.000000
  4.207040  0.858900  0.000000
  4.174900  0.826360  0.000000
  4.685740  1.408530  0.000000
  4.589080  1.284610  0.000000
  4.140940  0.790120  0.000000
  4.766050  1.511530  0.000000
  4.280680  0.928040  0.000000
  4.107710  0.752860  0.000000
  4.316780  0.962500  0.000000
  4.625990  1.319810  0.000000
  4.351770  0.997990  0.000000
  3.974500  0.618870  0.000000
  3.954610  0.600900  0.000000
  4.725080  1.440730  0.000000
  4.388670  1.030880  0.000000
  4.422180  1.067090  0.000000
  4.662460  1.353670  0.000000
  4.752340  1.467770  0.000000
  4.459120  1.100720  0.000000
  4.773600  1.487520  0.000000
  4.494060  1.132770  0.000000
  4.013570  0.635690  0.000000
  4.529530  1.167950  0.000000
  3.958300  0.576040  0.000000
  4.565840  1.201470  0.000000
  3.982270  0.592310  0.000000
  4.072720  0.673260  0.000000
  4.762730  1.446240  0.000000
  4.601550  1.236220  0.000000
  4.255330  0.846590  0.000000
  4.189560  0.780000  0.000000
  4.221060  0.811070  0.000000
  4.781030  1.463460  0.000000
  4.119200  0.709770  0.000000
  4.291770  0.880710  0.000000
  4.156420  0.742670  0.000000
  4.637190  1.271120  0.000000
  4.328660  0.914290  0.000000
  4.363610  0.949560  0.000000
  4.399290  0.984380  0.000000
  3.961850  0.551160  0.000000
  4.673730  1.305070  0.000000
  3.982530  0.566210  0.000000
  4.436340  1.017900  0.000000
  4.766880  1.419850  0.000000
  4.742740  1.387250  0.000000
  4.469820  1.052060  0.000000
  4.710090  1.338790  0.000000
  4.788340  1.439370  0.000000
  4.506410  1.085050  0.000000
  4.542300  1.119760  0.000000
  4.577290  1.155270  0.000000
  3.965230  0.526260  0.000000
  3.989400  0.542220  0.000000
  4.020810  0.569320  0.000000
  4.777730  1.397040  0.000000
  4.613940  1.188480  0.000000
  4.795530  1.415250  0.000000
  4.269450  0.801390  0.000000
  4.199430  0.731070  0.000000
  4.129090  0.662430  0.000000
  4.649700  1.223210  0.000000
  4.303180  0.832350  0.000000
  4.166650  0.695060  0.000000
  4.236760  0.763770  0.000000
  4.339420  0.865930  0.000000
  4.097600  0.625420  0.000000
  4.374840  0.900580  0.000000
  4.684450  1.256350  0.000000
  4.064480  0.590680  0.000000
  4.410280  0.935780  0.000000
  3.968460  0.501330  0.000000
  4.780930  1.371780  0.000000
  4.446690  0.969030  0.000000
  3.989460  0.515940  0.000000
  4.719710  1.290140  0.000000
  4.482460  1.003880  0.000000
  4.802590  1.391090  0.000000
  4.759490  1.334230  0.000000
  4.517420  1.039370  0.000000
  4.554480  1.071560  0.000000
  4.589440  1.106910  0.000000
  3.971530  0.476390  0.000000
  4.624920  1.141950  0.000000
  3.995900  0.492050  0.000000
  4.791560  1.348030  0.000000
  4.028300  0.517820  0.000000
  4.809530  1.366890  0.000000
  4.278970  0.752630  0.000000
  4.662040  1.175390  0.000000
  4.210700  0.682040  0.000000
  4.246810  0.716330  0.000000
  4.176400  0.647030  0.000000
  4.316060  0.784200  0.000000
  4.350960  0.819800  0.000000
  4.146320  0.615860  0.000000
  4.696660  1.207910  0.000000
  4.387490  0.852600  0.000000
  4.076790  0.544840  0.000000
  4.113620  0.578150  0.000000
  4.423090  0.887630  0.000000
  3.974450  0.451430  0.000000
  4.457960  0.923220  0.000000
  4.794500  1.323570  0.000000
  4.732460  1.242560  0.000000
  3.996260  0.464050  0.000000
  4.494820  0.955700  0.000000
  4.816350  1.342660  0.000000
  4.529720  0.991140  0.000000
  4.564780  1.026460  0.000000
  4.776930  1.280020  0.000000
  4.602750  1.058790  0.000000
  3.977200  0.426440  0.000000
  3.998000  0.443430  0.000000
  4.636390  1.092080  0.000000
  4.804560  1.297780  0.000000
  4.823050  1.318390  0.000000
  4.672480  1.126640  0.000000
  4.029960  0.460770  0.000000
  4.326210  0.740760  0.000000
  4.292050  0.704700  0.000000
  4.258640  0.668580  0.000000
  4.364030  0.771770  0.000000
  4.398530  0.807660  0.000000
  4.156460  0.567300  0.000000
  4.192520  0.601370  0.000000
  4.709330  1.159590  0.000000
  4.084850  0.500520  0.000000
  4.226890  0.631890  0.000000
  4.124410  0.530750  0.000000
  4.435680  0.839480  0.000000
  3.979800  0.401450  0.000000
  4.744730  1.194840  0.000000
  4.470490  0.875040  0.000000
  4.812230  1.278530  0.000000
  4.505420  0.910520  0.000000
  4.004460  0.416650  0.000000
  4.829630  1.294100  0.000000
  4.543120  0.943030  0.000000
  4.577980  0.978300  0.000000
  4.786180  1.224600  0.000000
  4.611920  1.010200  0.000000
  4.813950  1.251010  0.000000
  3.982250  0.376430  0.000000
  4.648110  1.043890  0.000000
  4.003180  0.392280  0.000000
  4.836080  1.269760  0.000000
  4.684400  1.078220  0.000000
  4.337730  0.692390  0.000000
  4.373210  0.727230  0.000000
  4.720030  1.113090  0.000000
  4.275260  0.628070  0.000000
  4.307140  0.657240  0.000000
  4.200370  0.552240  0.000000
  4.091920  0.451080  0.000000
  4.411060  0.759540  0.000000
  4.445810  0.795120  0.000000
  4.238460  0.584260  0.000000
  4.756520  1.147010  0.000000
  4.040000  0.400560  0.000000
  4.131090  0.482070  0.000000
  3.984530  0.351400  0.000000
  4.823490  1.228900  0.000000
  4.167930  0.514580  0.000000
  4.515390  0.861580  0.000000
  4.484020  0.826970  0.000000
  4.842410  1.245400  0.000000
  4.009380  0.366290  0.000000
  4.552670  0.894830  0.000000
  4.587560  0.929430  0.000000
  4.797590  1.176970  0.000000
  4.624610  0.962700  0.000000
  4.826300  1.202470  0.000000
  3.986660  0.326360  0.000000
  4.006260  0.342190  0.000000
  4.659510  0.995350  0.000000
  4.848620  1.221000  0.000000
  4.696030  1.029780  0.000000
  4.244950  0.546310  0.000000
  4.386930  0.684670  0.000000
  4.731730  1.064530  0.000000
  4.282900  0.578810  0.000000
  4.037050  0.351000  0.000000
  4.355090  0.646380  0.000000
  4.420390  0.711390  0.000000
  4.455080  0.746050  0.000000
  4.767830  1.099060  0.000000
  4.321550  0.609580  0.000000
  4.835490  1.180390  0.000000
  4.216950  0.506350  0.000000
  3.988640  0.301310  0.000000
  4.140520  0.433030  0.000000
  4.492790  0.778780  0.000000
  4.013850  0.319990  0.000000
  4.178160  0.465850  0.000000
  4.527660  0.813170  0.000000
  4.854710  1.196580  0.000000
  4.563300  0.848150  0.000000
  4.600600  0.881380  0.000000
  4.810770  1.126380  0.000000
  4.634730  0.913870  0.000000
  4.092500  0.368810  0.000000
  4.838160  1.153810  0.000000
  3.990450  0.276240  0.000000
  4.671640  0.947400  0.000000
  4.012430  0.292990  0.000000
  4.860670  1.172120  0.000000
  4.707560  0.981990  0.000000
  4.390450  0.635220  0.000000
  4.359730  0.599510  0.000000
  4.292110  0.529810  0.000000
  4.430680  0.664200  0.000000
  4.743300  1.008170  0.000000
  4.329600  0.562670  0.000000
  4.266410  0.501480  0.000000
  4.052050  0.306100  0.000000
  4.846920  1.131240  0.000000
  4.502470  0.734050  0.000000
  4.468340  0.698090  0.000000
  3.992110  0.251160  0.000000
  4.866510  1.147640  0.000000
  4.187800  0.416810  0.000000
  4.142160  0.374660  0.000000
  4.540630  0.765140  0.000000
  4.017320  0.265420  0.000000
  4.237440  0.460820  0.000000
  4.575950  0.800450  0.000000
  4.610780  0.832610  0.000000
  4.846930  1.105240  0.000000
  4.784080  1.027690  0.000000
  4.821830  1.073320  0.000000
  4.647520  0.866260  0.000000
  4.682940  0.901300  0.000000
  3.993610  0.226070  0.000000
  4.872230  1.123120  0.000000
  4.746420  0.966350  0.000000
  4.719350  0.934660  0.000000
  4.018910  0.240180  0.000000
  4.122400  0.328730  0.000000
  4.439670  0.627510  0.000000
  4.407910  0.589120  0.000000
  4.477230  0.656170  0.000000
  4.855040  1.080610  0.000000
  4.378180  0.553670  0.000000
  4.301450  0.478410  0.000000
  4.545220  0.723010  0.000000
  4.055580  0.255160  0.000000
  3.994950  0.200980  0.000000
  4.515140  0.686110  0.000000
  4.346000  0.515600  0.000000
  4.582620  0.755970  0.000000
  4.877820  1.098580  0.000000
  4.015480  0.213040  0.000000
  4.102640  0.282800  0.000000
  4.279010  0.441510  0.000000
  4.622110  0.784630  0.000000
  4.793980  0.978700  0.000000
  4.172060  0.334590  0.000000
  4.860420  1.056150  0.000000
  4.658400  0.817510  0.000000
  4.834020  1.019670  0.000000
  4.693430  0.852460  0.000000
  3.996130  0.175870  0.000000
  4.883290  1.074000  0.000000
  4.762350  0.925090  0.000000
  4.730400  0.886060  0.000000
  4.021610  0.189650  0.000000
  4.048320  0.208310  0.000000
  4.457250  0.582490  0.000000
  4.484720  0.607410  0.000000
  4.269160  0.397510  0.000000
  4.553400  0.676110  0.000000
  4.152300  0.288650  0.000000
  4.234210  0.360800  0.000000
  4.869550  1.031430  0.000000
  4.623410  0.745220  0.000000
  4.523030  0.637160  0.000000
  3.997160  0.150760  0.000000
  4.393290  0.506250  0.000000
  4.888630  1.049410  0.000000
  4.591970  0.707010  0.000000
  4.361240  0.468440  0.000000
  4.019860  0.161710  0.000000
  4.441230  0.544490  0.000000
  4.327930  0.431190  0.000000
  4.733400  0.846040  0.000000
  4.870800  1.007160  0.000000
  4.132540  0.242720  0.000000
  3.998030  0.125640  0.000000
  4.893860  1.024780  0.000000
  4.772020  0.877490  0.000000
  4.201960  0.294510  0.000000
  4.023680  0.139100  0.000000
  4.672530  0.757390  0.000000
  4.494360  0.567860  0.000000
  4.852770  0.960430  0.000000
  4.811950  0.907260  0.000000
  4.723910  0.805830  0.000000
  4.533330  0.599270  0.000000
  4.317620  0.385310  0.000000
  4.602480  0.667360  0.000000
  4.879630  0.981360  0.000000
  4.282890  0.349460  0.000000
  4.060710  0.153160  0.000000
  4.569960  0.629580  0.000000
  4.112790  0.196790  0.000000
  3.998740  0.100520  0.000000
  4.898950  1.000130  0.000000
  4.442220  0.496260  0.000000
  4.248800  0.313000  0.000000
  4.639080  0.698280  0.000000
  4.019400  0.111670  0.000000
  4.182200  0.248580  0.000000
  4.410300  0.459350  0.000000
  4.377090  0.421990  0.000000
  4.883070  0.961060  0.000000
  4.776600  0.829390  0.000000
  4.903930  0.975450  0.000000
  3.999290  0.075390  0.000000
  4.022080  0.091020  0.000000
  4.500980  0.521630  0.000000
  4.162440  0.202650  0.000000
  4.817100  0.857720  0.000000
  4.885460  0.933480  0.000000
  4.054500  0.102070  0.000000
  4.365690  0.374040  0.000000
  4.548670  0.551860  0.000000
  4.908780  0.950750  0.000000
  4.579250  0.581060  0.000000
  3.999680  0.050260  0.000000
  4.331030  0.337220  0.000000
  4.692550  0.700830  0.000000
  4.865450  0.894450  0.000000
  4.648720  0.649740  0.000000
  4.297480  0.301980  0.000000
  4.737770  0.745820  0.000000
  4.617140  0.613460  0.000000
  4.104790  0.129000  0.000000
  4.025580  0.063240  0.000000
  4.459010  0.449480  0.000000
  4.263580  0.265260  0.000000
  4.142680  0.156720  0.000000
  4.426060  0.411970  0.000000
  4.212100  0.208500  0.000000
  4.895470  0.908550  0.000000
  4.787680  0.780090  0.000000
  4.913500  0.926020  0.000000
  3.999920  0.025130  0.000000
  4.825490  0.809180  0.000000
  4.504940  0.462770  0.000000
  4.897030  0.887200  0.000000
  4.028180  0.030520  0.000000
  4.864850  0.841400  0.000000
  4.192340  0.162570  0.000000
  4.556230  0.502890  0.000000
  4.918100  0.901280  0.000000
  4.414240  0.362170  0.000000
  4.000000  0.000000  0.000000
  4.379750  0.326070  0.000000
  4.627820  0.571230  0.000000
  4.593860  0.535140  0.000000
  4.697870  0.641200  0.000000
  4.345790  0.289470  0.000000
  4.064820  0.043430  0.000000
  4.665590  0.603170  0.000000
  4.755330  0.699950  0.000000
  4.311140  0.253990  0.000000
  4.899000  0.859590  0.000000
  4.111400  0.076170  0.000000
  4.277850  0.215920  0.000000
  4.025930  0.000000  0.000000
  4.794620  0.730860  0.000000
  4.922570  0.876500  0.000000
  4.172590  0.116650  0.000000
  4.833390  0.760550  0.000000
  4.491640  0.399530  0.000000
  4.241970  0.168330  0.000000
  4.903270  0.834910  0.000000
  4.053450  0.000000  0.000000
  4.098020  0.032030  0.000000
  4.926930  0.851710  0.000000
  4.881010  0.792240  0.000000
  4.532630  0.416750  0.000000
  4.428030  0.314180  0.000000
  4.603230  0.486140  0.000000
  4.464390  0.348420  0.000000
  4.568460  0.450270  0.000000
  4.642370  0.523510  0.000000
  4.762320  0.650700  0.000000
  4.394520  0.278590  0.000000
  4.708640  0.590700  0.000000
  4.222230  0.122530  0.000000
  4.674660  0.554130  0.000000
  4.359530  0.243140  0.000000
  4.082600  0.000000  0.000000
  4.910680  0.808240  0.000000
  4.325860  0.206310  0.000000
  4.801400  0.681370  0.000000
  4.931150  0.826890  0.000000
  4.126420  0.028780  0.000000
  4.296990  0.170850  0.000000
  4.840810  0.711840  0.000000
  4.193320  0.072230  0.000000
  4.916300  0.788100  0.000000
  4.113440  0.000000  0.000000
  4.163230  0.035720  0.000000
  4.935250  0.802060  0.000000
  4.271390  0.128060  0.000000
  4.884410  0.737970  0.000000
  4.510440  0.337880  0.000000
  4.580430  0.405670  0.000000
  4.769310  0.601210  0.000000
  4.651020  0.474590  0.000000
  4.546760  0.369020  0.000000
  4.475920  0.300020  0.000000
  4.616950  0.438270  0.000000
  4.915320  0.760760  0.000000
  4.441490  0.263850  0.000000
  4.688310  0.507400  0.000000
  4.407890  0.231210  0.000000
  4.723050  0.542910  0.000000
  4.371560  0.196920  0.000000
  4.146030  0.000000  0.000000
  4.808650  0.631940  0.000000
  4.939230  0.777200  0.000000
  4.253090  0.083870  0.000000
  4.340000  0.159200  0.000000
  4.194920  0.031050  0.000000
  4.847730  0.663060  0.000000
  4.922470  0.737940  0.000000
  4.320840  0.127060  0.000000
  4.887460  0.692460  0.000000
  4.180430  0.000000  0.000000
  4.943080  0.752320  0.000000
  4.235750  0.039620  0.000000
  4.293660  0.085730  0.000000
  4.776470  0.551740  0.000000
  4.922730  0.711230  0.000000
  4.627970  0.393950  0.000000
  4.593830  0.357770  0.000000
  4.523690  0.289010  0.000000
  4.665570  0.426810  0.000000
  4.560230  0.321280  0.000000
  4.698270  0.458480  0.000000
  4.490080  0.252320  0.000000
  4.815690  0.582730  0.000000
  4.946800  0.727430  0.000000
  4.736630  0.494870  0.000000
  4.455440  0.216380  0.000000
  4.419470  0.182770  0.000000
  4.216680  0.000000  0.000000
  4.854160  0.614220  0.000000
  4.274870  0.041630  0.000000
  4.926250  0.686440  0.000000
  4.371910  0.125130  0.000000
  4.950400  0.702510  0.000000
  4.902840  0.644240  0.000000
  4.343140  0.084660  0.000000
  4.254830  0.000000  0.000000
  4.932850  0.659550  0.000000
  4.571140  0.277830  0.000000
  4.315950  0.043300  0.000000
  4.642400  0.346150  0.000000
  4.675290  0.378040  0.000000
  4.953880  0.677580  0.000000
  4.537480  0.241270  0.000000
  4.608880  0.310190  0.000000
  4.712040  0.411540  0.000000
  4.746700  0.447210  0.000000
  4.467290  0.171070  0.000000
  4.503950  0.204630  0.000000
  4.822390  0.522600  0.000000
  4.862350  0.564960  0.000000
  4.784040  0.479990  0.000000
  4.937880  0.639210  0.000000
  4.428530  0.119510  0.000000
  4.294920  0.000000  0.000000
  4.957220  0.652630  0.000000
  4.391500  0.079490  0.000000
  4.907510  0.588560  0.000000
  4.359000  0.043300  0.000000
  4.936050  0.611960  0.000000
  4.960450  0.627670  0.000000
  4.790130  0.441060  0.000000
  4.581180  0.228920  0.000000
  4.652300  0.297400  0.000000
  4.618350  0.262260  0.000000
  4.547550  0.193430  0.000000
  4.688990  0.331000  0.000000
  4.722840  0.362790  0.000000
  4.336980  0.000000  0.000000
  4.827720  0.464350  0.000000
  4.942720  0.588580  0.000000
  4.770540  0.397740  0.000000
  4.516980  0.147440  0.000000
  4.963540  0.602680  0.000000
  4.868080  0.491840  0.000000
  4.478640  0.104600  0.000000
  4.401950  0.033220  0.000000
  4.912450  0.533730  0.000000
  4.941960  0.562230  0.000000
  4.381030  0.000000  0.000000
  4.442350  0.053980  0.000000
  4.966520  0.577690  0.000000
  4.629600  0.216060  0.000000
  4.698460  0.282130  0.000000
  4.666470  0.249740  0.000000
  4.944730  0.537340  0.000000
  4.735550  0.315330  0.000000
  4.831750  0.414550  0.000000
  4.771030  0.350260  0.000000
  4.969360  0.552670  0.000000
  4.872790  0.442800  0.000000
  4.524430  0.093100  0.000000
  4.610370  0.170220  0.000000
  4.427090  0.000000  0.000000
  4.947370  0.512440  0.000000
  4.917110  0.478970  0.000000
  4.972080  0.527650  0.000000
  4.578690  0.119360  0.000000
  4.819290  0.356770  0.000000
  4.499310  0.042650  0.000000
  4.672970  0.205530  0.000000
  4.747130  0.271930  0.000000
  4.708280  0.233140  0.000000
  4.953720  0.486830  0.000000
  4.783180  0.304790  0.000000
  4.974670  0.502610  0.000000
  4.877000  0.393710  0.000000
  4.475160  0.000000  0.000000
  4.952280  0.462590  0.000000
  4.921800  0.428690  0.000000
  4.657300  0.157900  0.000000
  4.628270  0.125130  0.000000
  4.977140  0.477560  0.000000
  4.558260  0.052540  0.000000
  4.958390  0.436780  0.000000
  4.703190  0.170820  0.000000
  4.757170  0.223020  0.000000
  4.608710  0.079480  0.000000
  4.833920  0.299910  0.000000
  4.979480  0.452490  0.000000
  4.525180  0.000000  0.000000
  4.794330  0.256360  0.000000
  4.879300  0.339090  0.000000
  4.956690  0.412710  0.000000
  4.679350  0.127030  0.000000
  4.981700  0.427420  0.000000
  4.931400  0.372720  0.000000
  4.598310  0.033220  0.000000
  4.657070  0.084670  0.000000
  4.961800  0.385500  0.000000
  4.573200  0.000000  0.000000
  4.983790  0.402330  0.000000
  4.883940  0.295420  0.000000
  4.758250  0.168270  0.000000
  4.804660  0.207460  0.000000
  4.842070  0.241560  0.000000
  4.728800  0.128030  0.000000
  4.641220  0.043300  0.000000
  4.965780  0.365080  0.000000
  4.985750  0.377240  0.000000
  4.930230  0.316000  0.000000
  4.706550  0.085710  0.000000
  4.619210  0.000000  0.000000
  4.962360  0.337800  0.000000
  4.987580  0.352130  0.000000
  4.684240  0.043300  0.000000
  4.807880  0.162470  0.000000
  4.846020  0.196410  0.000000
  4.777950  0.122460  0.000000
  4.967650  0.314100  0.000000
  4.747040  0.083840  0.000000
  4.888160  0.222350  0.000000
  4.989290  0.327020  0.000000
  4.663230  0.000000  0.000000
  4.934820  0.260470  0.000000
  4.965510  0.287810  0.000000
  4.725280  0.041600  0.000000
  4.990880  0.301890  0.000000
  4.847290  0.146470  0.000000
  4.966890  0.262810  0.000000
  4.705250  0.000000  0.000000
  4.889830  0.172400  0.000000
  4.992330  0.276760  0.000000
  4.764370  0.039590  0.000000
  4.968150  0.237800  0.000000
  4.940830  0.201080  0.000000
  4.821540  0.079900  0.000000
  4.993660  0.251620  0.000000
  4.745310  0.000000  0.000000
  4.974580  0.211410  0.000000
  4.886580  0.121530  0.000000
  4.994870  0.226480  0.000000
  4.805160  0.031040  0.000000
  4.973110  0.190360  0.000000
  4.933980  0.149090  0.000000
  4.783430  0.000000  0.000000
  4.995940  0.201330  0.000000
  4.836840  0.035700  0.000000
  4.971180  0.162740  0.000000
  4.888630  0.076150  0.000000
  4.819650  0.000000  0.000000
  4.996900  0.176170  0.000000
  4.938210  0.105160  0.000000
  4.971930  0.137710  0.000000
  4.873620  0.028770  0.000000
  4.997720  0.151020  0.000000
  4.854020  0.000000  0.000000
  4.976120  0.111410  0.000000
  4.902010  0.032010  0.000000
  4.998420  0.125850  0.000000
  4.973070  0.087640  0.000000
  4.886600  0.000000  0.000000
  4.939500  0.049830  0.000000
  4.998990  0.100690  0.000000
  4.917420  0.000000  0.000000
  4.976890  0.058850  0.000000
  4.999430  0.075520  0.000000
  4.972700  0.030920  0.000000
  4.946550  0.000000  0.000000
  4.999750  0.050350  0.000000
  4.974060  0.000000  0.000000
  4.999940  0.025170  0.000000
  5.000000  0.000000  0.000000

CELLS  7508  30032
  3  416  417  394
  3  1078  1093  1082
  3  2004  2018  2013
  3  2951  2965  2964
  3  662  672  655
  3  1529  1543  1538
  3  2480  2496  2495
  3  3420  3432  3433
  3  497  507  482
  3  1300  1315  1307
  3  2243  2256  2252
  3  3182  3197  3201
  3  859  872  858
  3  1767  1782  1774
  3  2716  2730  2727
  3  3657  3671  3675
  3  444  448  420
  3  1193  1207  1197
  3  2126  2140  2137
  3  3068  3083  3084
  3  759  771  756
  3  1647  1664  1656
  3  2599  2615  2610
  3  3539  3550  3551
  3  573  583  566
  3  1410  1426  1418
  3  2360  2375  2369
  3  3304  3315  3317
  3  965  981  969
  3  1885  1898  1894
  3  2832  2848  2846
  3  3767  3785  3789
  3  426  430  405
  3  1134  1150  1139
  3  2066  2081  2076
  3  3008  3024  3026
  3  710  722  704
  3  1588  1603  1595
  3  2539  2554  2550
  3  3478  3490  3491
  3  533  541  524
  3  1358  1371  1363
  3  2302  2314  2313
  3  3244  3257  3259
  3  911  925  912
  3  1824  1840  1832
  3  2775  2789  2786
  3  3715  3726  3730
  3  467  475  450
  3  1245  1262  1251
  3  2185  2197  2194
  3  3124  3141  3142
  3  808  822  807
  3  1707  1721  1717
  3  2657  2673  2666
  3  3599  3611  3612
  3  617  626  608
  3  1465  1485  1474
  3  2420  2435  2430
  3  3362  3373  3376
  3  1022  1036  1024
  3  1944  1959  1954
  3  2892  2904  2902
  3  419  421  400
  3  1106  1121  1113
  3  2034  2050  2044
  3  2980  2994  2995
  3  685  695  681
  3  1559  1574  1567
  3  2510  2524  2521
  3  3450  3461  3463
  3  513  523  504
  3  1330  1343  1334
  3  2272  2285  2282
  3  3212  3227  3230
  3  885  899  886
  3  1794  1810  1803
  3  2744  2762  2754
  3  3685  3700  3704
  3  451  458  438
  3  1219  1234  1226
  3  2156  2170  2167
  3  3097  3112  3113
  3  783  796  781
  3  1677  1692  1688
  3  2628  2644  2641
  3  3569  3581  3583
  3  593  604  589
  3  1437  1454  1444
  3  2390  2406  2400
  3  3332  3344  3346
  3  993  1009  996
  3  1915  1928  1925
  3  2863  2875  2873
  3  434  439  412
  3  1163  1179  1169
  3  2096  2111  2106
  3  3038  3053  3055
  3  732  744  731
  3  1616  1633  1624
  3  2569  2583  2580
  3  3509  3520  3522
  3  550  560  543
  3  1383  1398  1391
  3  2331  2345  2342
  3  3271  3287  3288
  3  939  952  942
  3  1856  1869  1863
  3  2804  2820  2814
  3  3744  3756  3757
  3  481  486  469
  3  1273  1288  1278
  3  2212  2225  2222
  3  3153  3169  3172
  3  833  848  836
  3  1736  1753  1746
  3  2686  2700  2696
  3  3628  3641  3643
  3  639  652  635
  3  1497  1514  1506
  3  2448  2463  2461
  3  3392  3402  3404
  3  1049  1064  1053
  3  1975  1989  1983
  3  2921  2935  2933
  3  417  419  393
  3  1093  1106  1097
  3  2018  2034  2031
  3  2965  2980  2981
  3  672  685  670
  3  1543  1559  1551
  3  2496  2510  2507
  3  3432  3450  3449
  3  507  513  496
  3  1315  1330  1319
  3  2256  2272  2267
  3  3197  3212  3215
  3  872  885  876
  3  1782  1794  1789
  3  2730  2744  2743
  3  3671  3685  3690
  3  448  451  433
  3  1207  1219  1212
  3  2140  2156  2151
  3  3083  3097  3094
  3  771  783  772
  3  1664  1677  1672
  3  2615  2628  2626
  3  3550  3569  3574
  3  583  593  575
  3  1426  1437  1430
  3  2375  2390  2388
  3  3315  3332  3335
  3  981  993  982
  3  1898  1915  1909
  3  2848  2863  2862
  3  3785  3795  3808
  3  430  434  406
  3  1150  1163  1154
  3  2081  2096  2091
  3  3024  3038  3039
  3  722  732  714
  3  1603  1616  1613
  3  2554  2569  2568
  3  3490  3509  3512
  3  541  550  537
  3  1371  1383  1376
  3  2314  2331  2328
  3  3257  3271  3276
  3  925  939  926
  3  1840  1856  1849
  3  2789  2804  2803
  3  3726  3744  3749
  3  475  481  462
  3  1262  1273  1266
  3  2197  2212  2207
  3  3141  3153  3155
  3  822  833  821
  3  1721  1736  1732
  3  2673  2686  2682
  3  3611  3628  3631
  3  626  639  623
  3  1485  1497  1491
  3  2435  2448  2446
  3  3373  3392  3391
  3  1036  1049  1039
  3  1959  1975  1969
  3  2904  2921  2920
  3  421  426  399
  3  1121  1134  1124
  3  2050  2066  2061
  3  2994  3008  3009
  3  695  710  694
  3  1574  1588  1580
  3  2524  2539  2538
  3  3461  3478  3480
  3  523  533  514
  3  1343  1358  1347
  3  2285  2302  2292
  3  3227  3244  3246
  3  899  911  903
  3  1810  1824  1819
  3  2762  2775  2774
  3  3700  3715  3720
  3  458  467  445
  3  1234  1245  1238
  3  2170  2185  2180
  3  3112  3124  3123
  3  796  808  800
  3  1692  1707  1701
  3  2644  2657  2656
  3  3581  3599  3605
  3  604  617  599
  3  1454  1465  1460
  3  2406  2420  2416
  3  3344  3362  3361
  3  1009  1022  1012
  3  1928  1944  1938
  3  2875  2892  2890
  3  439  444  415
  3  1179  1193  1182
  3  2111  2126  2120
  3  3053  3068  3069
  3  744  759  742
  3  1633  1647  1642
  3  2583  2599  2598
  3  3520  3539  3543
  3  560  573  558
  3  1398  1410  1402
  3  2345  2360  2355
  3  3287  3304  3306
  3  952  965  953
  3  1869  1885  1879
  3  2820  2832  2831
  3  3756  3767  3776
  3  486  497  478
  3  1288  1300  1292
  3  2225  2243  2237
  3  3169  3182  3185
  3  848  859  847
  3  1753  1767  1760
  3  2700  2716  2711
  3  3641  3657  3662
  3  652  662  647
  3  1514  1529  1521
  3  2463  2480  2477
  3  3402  3420  3424
  3  1064  1078  1067
  3  1989  2004  2000
  3  2935  2951  2948
  3  4062  4061  4060
  3  2508  2492  2490
  3  698  684  688
  3  3400  3387  3384
  3  1607  1594  1598
  3  3844  3836  3833
  3  2062  2046  2047
  3  168  155  159
  3  2953  2938  2936
  3  1168  1152  1157
  3  3991  3985  3983
  3  2283  2270  2271
  3  425  401  409
  3  3174  3163  3158
  3  1382  1372  1374
  3  3634  3614  3610
  3  1833  1820  1821
  3  32  24  29
  3  2729  2715  2713
  3  934  920  924
  3  4036  4031  4029
  3  2396  2380  2382
  3  572  557  565
  3  3285  3272  3275
  3  1494  1480  1484
  3  3745  3727  3724
  3  1947  1932  1936
  3  90  79  83
  3  2840  2825  2826
  3  1050  1037  1040
  3  3933  3920  3919
  3  2175  2159  2160
  3  279  267  273
  3  3064  3050  3047
  3  1275  1263  1267
  3  3515  3495  3493
  3  2621  2603  2602
  3  1722  1708  1712
  3  820  803  812
  3  4053  4049  4047
  3  2453  2437  2440
  3  636  622  625
  3  3342  3328  3323
  3  1552  1539  1541
  3  3793  3784  3782
  3  2003  1990  1994
  3  120  113  116
  3  2895  2882  2883
  3  1110  1095  1099
  3  3965  3956  3954
  3  2226  2216  2215
  3  348  331  336
  3  3119  3107  3103
  3  1332  1316  1321
  3  3575  3554  3553
  3  1777  1766  1769
  3  11  7  10
  3  2677  2660  2659
  3  878  862  866
  3  4017  4012  4009
  3  2340  2322  2329
  3  505  483  490
  3  3229  3217  3213
  3  1435  1425  1427
  3  3689  3672  3666
  3  1890  1876  1878
  3  56  49  52
  3  2783  2771  2770
  3  992  978  983
  3  3893  3884  3875
  3  2119  2102  2108
  3  220  205  213
  3  3006  2993  2988
  3  1223  1210  1214
  3  3457  3443  3436
  3  2562  2548  2547
  3  1667  1651  1653
  3  760  743  751
  3  4059  4056  4055
  3  2479  2465  2464
  3  668  653  657
  3  3371  3358  3354
  3  1581  1566  1569
  3  3818  3810  3805
  3  2032  2017  2019
  3  144  133  138
  3  2925  2909  2908
  3  1138  1123  1128
  3  3979  3972  3968
  3  2254  2242  2244
  3  382  364  370
  3  3145  3136  3132
  3  1359  1345  1349
  3  3604  3584  3580
  3  1804  1792  1796
  3  21  15  19
  3  2703  2688  2687
  3  906  891  895
  3  4027  4022  4019
  3  2366  2350  2351
  3  539  519  527
  3  3258  3247  3240
  3  1464  1450  1455
  3  3717  3701  3696
  3  1918  1904  1908
  3  70  65  67
  3  2811  2799  2796
  3  1021  1007  1011
  3  3915  3902  3897
  3  2146  2130  2135
  3  251  236  242
  3  3036  3019  3017
  3  1248  1235  1241
  3  3486  3470  3465
  3  2590  2576  2575
  3  1696  1680  1684
  3  790  774  778
  3  4045  4041  4038
  3  2423  2409  2412
  3  605  590  595
  3  3314  3300  3295
  3  1523  1509  1512
  3  3765  3755  3753
  3  1976  1962  1965
  3  105  95  101
  3  2866  2853  2855
  3  1081  1066  1071
  3  3949  3941  3938
  3  2201  2188  2190
  3  316  300  305
  3  3091  3079  3075
  3  1302  1289  1293
  3  3545  3525  3523
  3  1751  1737  1741
  3  4  1  3
  3  2648  2631  2630
  3  849  831  838
  3  4004  3999  3998
  3  2311  2296  2300
  3  468  446  454
  3  3202  3191  3186
  3  1409  1397  1400
  3  3658  3644  3640
  3  1865  1848  1850
  3  42  37  39
  3  2758  2742  2741
  3  963  949  954
  3  3871  3862  3854
  3  2090  2075  2077
  3  194  179  185
  3  2979  2966  2962
  3  1196  1181  1185
  3  3428  3414  3409
  3  2534  2520  2519
  3  1637  1622  1626
  3  730  713  721
  3  4061  4059  4057
  3  2492  2479  2482
  3  684  668  676
  3  3387  3371  3370
  3  1594  1581  1584
  3  3836  3818  3815
  3  2046  2032  2033
  3  155  144  148
  3  2938  2925  2923
  3  1152  1138  1143
  3  3985  3979  3974
  3  2270  2254  2255
  3  401  382  389
  3  3163  3145  3144
  3  1372  1359  1362
  3  3614  3604  3600
  3  1820  1804  1807
  3  24  21  22
  3  2715  2703  2704
  3  920  906  909
  3  4031  4027  4024
  3  2380  2366  2368
  3  557  539  544
  3  3272  3258  3253
  3  1480  1464  1467
  3  3727  3717  3712
  3  1932  1918  1920
  3  79  70  77
  3  2825  2811  2809
  3  1037  1021  1028
  3  3920  3915  3912
  3  2159  2146  2148
  3  267  251  256
  3  3050  3036  3037
  3  1263  1248  1252
  3  3495  3486  3482
  3  2603  2590  2588
  3  1708  1696  1699
  3  803  790  791
  3  4049  4045  4043
  3  2437  2423  2424
  3  622  605  612
  3  3328  3314  3311
  3  1539  1523  1527
  3  3784  3765  3761
  3  1990  1976  1977
  3  113  105  107
  3  2882  2866  2864
  3  1095  1081  1086
  3  3956  3949  3945
  3  2216  2201  2203
  3  331  316  321
  3  3107  3091  3085
  3  1316  1302  1306
  3  3554  3545  3541
  3  1766  1751  1755
  3  7  4  6
  3  2660  2648  2650
  3  862  849  852
  3  4012  4004  4003
  3  2322  2311  2312
  3  483  468  476
  3  3217  3202  3199
  3  1425  1409  1416
  3  3672  3658  3654
  3  1876  1865  1864
  3  49  42  45
  3  2771  2758  2753
  3  978  963  966
  3  3884  3871  3867
  3  2102  2090  2092
  3  205  194  199
  3  2993  2979  2977
  3  1210  1196  1200
  3  3443  3428  3427
  3  2548  2534  2537
  3  1651  1637  1641
  3  743  730  734
  3  4056  4053  4050
  3  2465  2453  2451
  3  653  636  642
  3  3358  3342  3341
  3  1566  1552  1557
  3  3810  3793  3788
  3  2017  2003  2005
  3  133  120  127
  3  2909  2895  2893
  3  1123  1110  1114
  3  3972  3965  3963
  3  2242  2226  2227
  3  364  348  354
  3  3136  3119  3116
  3  1345  1332  1336
  3  3584  3575  3572
  3  1792  1777  1781
  3  15  11  14
  3  2688  2677  2679
  3  891  878  881
  3  4022  4017  4015
  3  2350  2340  2341
  3  519  505  510
  3  3247  3229  3226
  3  1450  1435  1440
  3  3701  3689  3680
  3  1904  1890  1893
  3  65  56  60
  3  2799  2783  2781
  3  1007  992  997
  3  3902  3893  3891
  3  2130  2119  2121
  3  236  220  225
  3  3019  3006  3005
  3  1235  1223  1227
  3  3470  3457  3455
  3  2576  2562  2564
  3  1680  1667  1669
  3  774  760  763
  3  4041  4036  4033
  3  2409  2396  2397
  3  590  572  577
  3  3300  3285  3281
  3  1509  1494  1495
  3  3755  3745  3739
  3  1962  1947  1948
  3  95  90  93
  3  2853  2840  2838
  3  1066  1050  1057
  3  3941  3933  3930
  3  2188  2175  2176
  3  300  279  290
  3  3079  3064  3063
  3  1289  1275  1279
  3  3525  3515  3510
  3  1737  1722  1726
  3  1  0  2
  3  2631  2621  2620
  3  831  820  823
  3  3999  3991  3989
  3  2296  2283  2284
  3  446  425  437
  3  3191  3174  3173
  3  1397  1382  1387
  3  3644  3634  3626
  3  1848  1833  1838
  3  37  32  34
  3  2742  2729  2732
  3  949  934  937
  3  3862  3844  3841
  3  2075  2062  2063
  3  179  168  173
  3  2966  2953  2952
  3  1181  1168  1171
  3  3414  3400  3397
  3  2520  2508  2505
  3  1622  1607  1611
  3  713  698  702
  3  3808  3816  3789
  3  4058  4060  4057
  3  2  5  3
  3  375  394  393
  3  1082  1093  1097
  3  1082  1097  1084
  3  2044  2050  2061
  3  2044  2061  2057
  3  670  685  681
  3  670  681  660
  3  2538  2539  2550
  3  2538  2550  2545
  3  1139  1150  1154
  3  1139  1154  1142
  3  3055  3053  3069
  3  3055  3069  3071
  3  1613  1616  1624
  3  1613  1624  1617
  3  3543  3539  3551
  3  3543  3551  3556
  3  1197  1207  1212
  3  1197  1212  1192
  3  2167  2170  2180
  3  2167  2180  2179
  3  772  783  781
  3  772  781  762
  3  2656  2657  2666
  3  2656  2666  2674
  3  1251  1262  1266
  3  1251  1266  1255
  3  3172  3169  3185
  3  3172  3185  3198
  3  1732  1736  1746
  3  1732  1746  1740
  3  3662  3657  3675
  3  3662  3675  3684
  3  1307  1315  1319
  3  1307  1319  1311
  3  2282  2285  2292
  3  2282  2292  2293
  3  876  885  886
  3  876  886  869
  3  2774  2775  2786
  3  2774  2786  2793
  3  1363  1371  1376
  3  1363  1376  1368
  3  3288  3287  3306
  3  3288  3306  3313
  3  1849  1856  1863
  3  1849  1863  1857
  3  3776  3767  3789
  3  3776  3789  3801
  3  1418  1426  1430
  3  1418  1430  1422
  3  2400  2406  2416
  3  2400  2416  2417
  3  982  993  996
  3  982  996  974
  3  2890  2892  2902
  3  2890  2902  2912
  3  1474  1485  1491
  3  1474  1491  1478
  3  3404  3402  3424
  3  3404  3424  3429
  3  1969  1975  1983
  3  1969  1983  1972
  3  1538  1543  1551
  3  1538  1551  1542
  3  2521  2524  2538
  3  2521  2538  2545
  3  496  513  504
  3  496  504  472
  3  2292  2302  2313
  3  2292  2313  2293
  3  1595  1603  1613
  3  1595  1613  1617
  3  3522  3520  3543
  3  3522  3543  3556
  3  1376  1383  1391
  3  1376  1393  1368
  3  3306  3304  3317
  3  3306  3317  3313
  3  1656  1664  1672
  3  1656  1672  1655
  3  2641  2644  2656
  3  2641  2656  2674
  3  575  593  589
  3  575  589  567
  3  2416  2420  2430
  3  2416  2430  2417
  3  1717  1721  1732
  3  1717  1732  1740
  3  3643  3641  3662
  3  3643  3662  3653
  3  1491  1497  1506
  3  1491  1513  1478
  3  3424  3420  3433
  3  3424  3459  3429
  3  1774  1782  1789
  3  1774  1789  1784
  3  2754  2762  2774
  3  2754  2774  2761
  3  433  451  438
  3  433  438  398
  3  2180  2185  2194
  3  2180  2194  2179
  3  1832  1840  1849
  3  1832  1849  1857
  3  3757  3756  3776
  3  3757  3776  3762
  3  1266  1273  1278
  3  1266  1278  1255
  3  3185  3182  3201
  3  3185  3201  3198
  3  1894  1898  1909
  3  1894  1909  1896
  3  2873  2875  2890
  3  2873  2890  2877
  3  1154  1163  1169
  3  1154  1162  1142
  3  3069  3068  3084
  3  3069  3099  3071
  3  1954  1959  1969
  3  1954  1969  1972
  3  393  419  400
  3  393  400  371
  3  2061  2066  2076
  3  2061  2085  2057
  3  2964  2965  2981
  3  2964  2981  2986
  3  681  695  694
  3  681  686  660
  3  2507  2510  2521
  3  2507  2521  2516
  3  514  533  524
  3  514  524  493
  3  3026  3024  3039
  3  3026  3039  3041
  3  1624  1633  1642
  3  1624  1642  1617
  3  3512  3509  3522
  3  3512  3522  3524
  3  1402  1410  1418
  3  1402  1418  1422
  3  3084  3083  3094
  3  3084  3094  3099
  3  781  796  800
  3  781  795  762
  3  2626  2628  2641
  3  2626  2641  2634
  3  599  617  608
  3  599  608  587
  3  3142  3141  3155
  3  3142  3155  3168
  3  1746  1753  1760
  3  1746  1760  1740
  3  3631  3628  3643
  3  3631  3643  3653
  3  1521  1529  1538
  3  1521  1538  1542
  3  3201  3197  3215
  3  3201  3215  3225
  3  886  899  903
  3  886  896  869
  3  2743  2744  2754
  3  2743  2754  2761
  3  445  467  450
  3  445  450  414
  3  3259  3257  3276
  3  3259  3276  3283
  3  1863  1869  1879
  3  1863  1879  1857
  3  3749  3744  3757
  3  3749  3757  3762
  3  1292  1300  1307
  3  1292  1307  1311
  3  3317  3315  3335
  3  3317  3335  3343
  3  996  1009  1012
  3  996  1010  974
  3  2862  2863  2873
  3  2862  2873  2877
  3  1182  1193  1197
  3  1182  1197  1192
  3  3376  3373  3391
  3  3376  3391  3399
  3  1983  1989  2000
  3  1983  2008  1972
  3  399  426  405
  3  399  405  376
  3  3433  3432  3449
  3  3433  3449  3459
  3  504  523  514
  3  504  514  493
  3  2267  2272  2282
  3  2267  2282  2293
  3  903  911  912
  3  903  912  896
  3  3491  3490  3512
  3  3491  3512  3524
  3  1391  1398  1402
  3  1391  1402  1393
  3  3276  3271  3288
  3  3276  3288  3283
  3  1879  1885  1894
  3  1879  1894  1896
  3  3551  3550  3574
  3  3551  3574  3556
  3  589  604  599
  3  589  599  567
  3  2388  2390  2400
  3  2388  2400  2417
  3  1012  1022  1024
  3  1012  1024  1010
  3  3612  3611  3631
  3  3612  3631  3620
  3  1506  1514  1521
  3  1506  1521  1513
  3  3391  3392  3404
  3  3391  3404  3399
  3  2000  2004  2013
  3  2000  2013  2008
  3  3675  3671  3690
  3  3675  3705  3684
  3  438  458  445
  3  438  445  414
  3  2151  2156  2167
  3  2151  2167  2149
  3  800  808  807
  3  800  807  795
  3  3730  3726  3749
  3  3730  3749  3762
  3  1278  1288  1292
  3  1278  1292  1283
  3  3155  3153  3172
  3  3155  3172  3168
  3  1760  1767  1774
  3  1760  1774  1784
  3  3789  3785  3808
  3  1169  1179  1182
  3  1169  1182  1162
  3  3039  3038  3055
  3  3039  3055  3071
  3  1642  1647  1656
  3  1642  1656  1655
  3  400  421  399
  3  400  399  371
  3  2031  2034  2044
  3  2031  2044  2057
  3  694  710  704
  3  694  704  686
  3  2013  2018  2031
  3  2013  2031  2008
  3  2995  2994  3009
  3  2995  3009  3011
  3  1551  1559  1567
  3  1551  1572  1542
  3  3480  3478  3491
  3  3480  3491  3492
  3  2076  2081  2091
  3  2076  2091  2085
  3  731  744  742
  3  731  742  727
  3  2568  2569  2580
  3  2568  2580  2581
  3  558  573  566
  3  558  566  540
  3  2137  2140  2151
  3  2137  2151  2149
  3  3113  3112  3123
  3  3113  3123  3134
  3  1672  1677  1688
  3  1672  1694  1655
  3  3605  3599  3612
  3  3605  3612  3620
  3  2194  2197  2207
  3  2194  2207  2208
  3  836  848  847
  3  836  847  830
  3  2682  2686  2696
  3  2682  2696  2702
  3  647  662  655
  3  647  655  632
  3  2252  2256  2267
  3  2252  2267  2265
  3  3230  3227  3246
  3  3230  3246  3254
  3  1789  1794  1803
  3  1789  1811  1784
  3  3720  3715  3730
  3  3720  3730  3741
  3  2313  2314  2328
  3  2313  2328  2324
  3  942  952  953
  3  942  953  940
  3  2803  2804  2814
  3  2803  2814  2821
  3  478  497  482
  3  478  482  453
  3  2369  2375  2388
  3  2369  2388  2385
  3  3346  3344  3361
  3  3346  3361  3368
  3  1909  1915  1925
  3  1909  1934  1896
  3  415  444  420
  3  415  420  386
  3  2430  2435  2446
  3  2430  2446  2452
  3  1053  1064  1067
  3  1053  1067  1055
  3  2920  2921  2933
  3  2920  2933  2939
  3  2495  2496  2507
  3  2495  2507  2516
  3  3463  3461  3480
  3  3463  3480  3492
  3  1319  1330  1334
  3  1319  1334  1311
  3  3246  3244  3259
  3  3246  3259  3254
  3  2550  2554  2568
  3  2550  2568  2545
  3  543  560  558
  3  543  558  540
  3  2328  2331  2342
  3  2328  2354  2324
  3  953  965  969
  3  953  969  940
  3  2610  2615  2626
  3  2610  2626  2634
  3  3583  3581  3605
  3  3583  3605  3597
  3  1430  1437  1444
  3  1430  1449  1422
  3  3361  3362  3376
  3  3361  3376  3368
  3  2666  2673  2682
  3  2666  2682  2674
  3  635  652  647
  3  635  647  632
  3  2446  2448  2461
  3  2446  2461  2452
  3  1067  1078  1082
  3  1067  1082  1055
  3  2727  2730  2743
  3  2727  2743  2761
  3  3704  3700  3720
  3  3704  3720  3741
  3  1212  1219  1226
  3  1212  1228  1192
  3  3123  3124  3142
  3  3123  3142  3134
  3  2786  2789  2803
  3  2786  2803  2793
  3  469  486  478
  3  469  478  453
  3  2207  2212  2222
  3  2207  2222  2208
  3  847  859  858
  3  847  858  830
  3  2846  2848  2862
  3  2846  2862  2877
  3  412  439  415
  3  412  415  381
  3  2091  2096  2106
  3  2091  2118  2085
  3  742  759  756
  3  742  756  727
  3  2902  2904  2920
  3  2902  2920  2912
  3  1097  1106  1113
  3  1097  1111  1084
  3  3009  3008  3026
  3  3009  3026  3041
  3  655  672  670
  3  655  670  660
  3  1567  1574  1580
  3  1567  1580  1572
  3  3449  3450  3463
  3  3449  3463  3459
  3  1347  1358  1363
  3  1347  1363  1339
  3  704  722  714
  3  704  714  686
  3  2580  2583  2598
  3  2580  2598  2581
  3  537  550  543
  3  537  543  520
  3  2355  2360  2369
  3  2355  2369  2354
  3  756  771  772
  3  756  772  762
  3  1688  1692  1701
  3  1688  1701  1694
  3  3574  3569  3583
  3  3574  3583  3597
  3  1460  1465  1474
  3  1460  1474  1478
  3  807  822  821
  3  807  821  795
  3  2696  2700  2711
  3  2696  2711  2702
  3  623  639  635
  3  623  635  610
  3  2477  2480  2495
  3  2477  2495  2489
  3  858  872  876
  3  858  876  869
  3  1803  1810  1819
  3  1803  1819  1811
  3  3690  3685  3704
  3  3690  3704  3705
  3  1238  1245  1251
  3  1238  1251  1228
  3  912  925  926
  3  912  926  896
  3  2814  2820  2831
  3  2814  2831  2821
  3  462  481  469
  3  462  469  432
  3  2237  2243  2252
  3  2237  2252  2236
  3  969  981  982
  3  969  982  974
  3  1925  1928  1938
  3  1925  1938  1934
  3  406  434  412
  3  406  412  381
  3  2120  2126  2137
  3  2120  2137  2118
  3  1024  1036  1039
  3  1024  1039  1010
  3  2933  2935  2948
  3  2933  2958  2939
  3  1124  1134  1139
  3  1124  1139  1111
  3  482  507  496
  3  482  496  472
  3  1334  1343  1347
  3  1334  1347  1339
  3  3215  3212  3230
  3  3215  3230  3225
  3  1819  1824  1832
  3  1819  1832  1811
  3  524  541  537
  3  524  537  520
  3  2342  2345  2355
  3  2342  2355  2354
  3  926  939  942
  3  926  942  940
  3  2831  2832  2846
  3  2831  2846  2851
  3  566  583  575
  3  566  575  540
  3  1444  1454  1460
  3  1444  1460  1449
  3  3335  3332  3346
  3  3335  3346  3343
  3  1938  1944  1954
  3  1938  1954  1934
  3  608  626  623
  3  608  610  587
  3  2461  2463  2477
  3  2461  2477  2489
  3  1039  1049  1053
  3  1039  1053  1055
  3  2948  2951  2964
  3  2948  2964  2958
  3  420  448  433
  3  420  398  386
  3  1226  1234  1238
  3  1226  1238  1228
  3  3094  3097  3113
  3  3094  3113  3099
  3  1701  1707  1717
  3  1701  1717  1694
  3  450  475  462
  3  450  462  432
  3  2222  2225  2237
  3  2222  2237  2236
  3  821  833  836
  3  821  836  830
  3  2711  2716  2727
  3  2711  2727  2731
  3  405  430  406
  3  405  406  376
  3  2106  2111  2120
  3  2106  2120  2118
  3  714  732  731
  3  714  731  727
  3  2598  2599  2610
  3  2598  2610  2611
  3  1113  1121  1124
  3  1113  1124  1111
  3  2981  2980  2995
  3  2981  2995  2986
  3  1580  1588  1595
  3  1580  1595  1572
  3  417  393  394
  3  2490  2492  2482
  3  2490  2482  2476
  3  305  300  290
  3  305  290  295
  3  3226  3229  3213
  3  3226  3213  3208
  3  1878  1876  1864
  3  1878  1864  1871
  3  1699  1696  1684
  3  1699  1684  1685
  3  3047  3050  3037
  3  3047  3037  3031
  3  3815  3818  3805
  3  3815  3805  3790
  3  1726  1722  1712
  3  1726  1712  1711
  3  895  891  881
  3  895  881  889
  3  3867  3871  3854
  3  3867  3854  3846
  3  29  24  22
  3  29  22  25
  3  2741  2742  2732
  3  2741  2732  2724
  3  4033  4036  4029
  3  4033  4029  4025
  3  3354  3358  3341
  3  3354  3341  3331
  3  1306  1302  1293
  3  1306  1293  1296
  3  3954  3956  3945
  3  3954  3945  3937
  3  2368  2366  2351
  3  2368  2351  2349
  3  2952  2953  2936
  3  2952  2936  2932
  3  3465  3470  3455
  3  3465  3455  3451
  3  127  120  116
  3  127  116  125
  3  1157  1152  1143
  3  1157  1143  1140
  3  3998  3999  3989
  3  3998  3989  3986
  3  2121  2119  2108
  3  2121  2108  2101
  3  1214  1210  1200
  3  1214  1200  1209
  3  1977  1976  1965
  3  1977  1965  1960
  3  625  622  612
  3  625  612  618
  3  3144  3145  3132
  3  3144  3132  3129
  3  3626  3634  3610
  3  3626  3610  3608
  3  67  65  60
  3  67  60  64
  3  734  730  721
  3  734  721  717
  3  3724  3727  3712
  3  3724  3712  3698
  3  2519  2520  2505
  3  2519  2505  2500
  3  2838  2840  2826
  3  2838  2826  2819
  3  2244  2242  2227
  3  2244  2227  2232
  3  476  468  454
  3  476  454  455
  3  2659  2660  2650
  3  2659  2650  2640
  3  1512  1509  1495
  3  1512  1495  1499
  3  1028  1021  1011
  3  1028  1011  1018
  3  3572  3575  3553
  3  3572  3553  3548
  3  3833  3836  3815
  3  3833  3815  3819
  3  1741  1737  1726
  3  1741  1726  1735
  3  60  56  52
  3  60  52  64
  3  3875  3884  3867
  3  3875  3867  3846
  3  612  605  595
  3  612  595  618
  3  1712  1708  1699
  3  1712  1699  1685
  3  1143  1138  1128
  3  1143  1128  1140
  3  2284  2283  2271
  3  2284  2271  2261
  3  3240  3247  3226
  3  3240  3226  3208
  3  1200  1196  1185
  3  1200  1172  1209
  3  2382  2380  2368
  3  2382  2368  2376
  3  185  179  173
  3  185  173  178
  3  1495  1494  1484
  3  1495  1472  1499
  3  138  133  127
  3  138  127  125
  3  2650  2648  2630
  3  2650  2630  2640
  3  1321  1316  1306
  3  1321  1306  1324
  3  3712  3717  3696
  3  3712  3696  3698
  3  1611  1607  1598
  3  1611  1598  1597
  3  4038  4041  4033
  3  4038  4033  4025
  3  2227  2226  2215
  3  2227  2198  2232
  3  3158  3163  3144
  3  3158  3144  3129
  3  1400  1397  1387
  3  1400  1387  1381
  3  3455  3457  3436
  3  3455  3421  3451
  3  751  743  734
  3  751  734  754
  3  3945  3949  3938
  3  3945  3938  3937
  3  1994  1990  1977
  3  1994  1977  1992
  3  22  21  19
  3  22  19  25
  3  937  934  924
  3  937  924  923
  3  2135  2130  2121
  3  2135  2121  2133
  3  3341  3342  3323
  3  3341  3323  3331
  3  1040  1037  1028
  3  1040  1028  1018
  3  2482  2479  2464
  3  2482  2464  2476
  3  290  279  273
  3  290  273  295
  3  3580  3584  3572
  3  3580  3572  3548
  3  1864  1865  1850
  3  1864  1835  1871
  3  490  483  476
  3  490  476  502
  3  2855  2853  2838
  3  2855  2838  2844
  3  3037  3036  3017
  3  3037  3017  3031
  3  881  878  866
  3  881  866  889
  3  3384  3387  3370
  3  3384  3370  3365
  3  1293  1289  1279
  3  1293  1270  1296
  3  3680  3689  3666
  3  3680  3666  3668
  3  2770  2771  2753
  3  2770  2753  2755
  3  4043  4045  4038
  3  4043  4038  4034
  3  3493  3495  3482
  3  3493  3482  3483
  3  148  144  138
  3  148  138  150
  3  823  820  812
  3  823  812  818
  3  2351  2350  2341
  3  2351  2321  2349
  3  199  194  185
  3  199  185  178
  3  924  920  909
  3  924  909  923
  3  3854  3862  3841
  3  3854  3819  3846
  3  577  572  565
  3  577  565  571
  3  3805  3810  3788
  3  3805  3770  3790
  3  1755  1751  1741
  3  1755  1741  1735
  3  336  331  321
  3  336  321  330
  3  3253  3258  3240
  3  3253  3240  3232
  3  3397  3400  3384
  3  3397  3384  3365
  3  1684  1680  1669
  3  1684  1669  1685
  3  1114  1110  1099
  3  1114  1099  1104
  3  2271  2270  2255
  3  2271  2255  2261
  3  454  446  437
  3  454  437  455
  3  3005  3006  2988
  3  3005  2988  2992
  3  2547  2548  2537
  3  2547  2537  2526
  3  2864  2866  2855
  3  2864  2855  2844
  3  1541  1539  1527
  3  1541  1527  1524
  3  3600  3604  3580
  3  3600  3580  3578
  3  34  32  29
  3  34  29  38
  3  1011  1007  997
  3  1011  989  1018
  3  2451  2453  2440
  3  2451  2440  2441
  3  83  79  77
  3  83  77  81
  3  721  713  702
  3  721  702  717
  3  3930  3933  3919
  3  3930  3919  3917
  3  3132  3136  3116
  3  3132  3098  3129
  3  1416  1409  1400
  3  1416  1400  1414
  3  4009  4012  4003
  3  4009  4003  4000
  3  1965  1962  1948
  3  1965  1948  1960
  3  2148  2146  2135
  3  2148  2135  2133
  3  14  11  10
  3  14  10  16
  3  159  155  148
  3  159  148  150
  3  2630  2631  2620
  3  2630  2620  2616
  3  997  992  983
  3  997  983  989
  3  213  205  199
  3  213  199  209
  3  1527  1523  1512
  3  1527  1512  1524
  3  4047  4049  4043
  3  4047  4043  4042
  3  2255  2254  2244
  3  2255  2244  2232
  3  3173  3174  3158
  3  3173  3158  3157
  3  3696  3701  3680
  3  3696  3680  3668
  3  2537  2534  2519
  3  2537  2519  2526
  3  3275  3272  3253
  3  3275  3253  3265
  3  1185  1181  1171
  3  1185  1171  1172
  3  1948  1947  1936
  3  1948  1936  1933
  3  1128  1123  1114
  3  1128  1114  1104
  3  4003  4004  3998
  3  4003  3998  3986
  3  1769  1766  1755
  3  1769  1755  1765
  3  595  590  577
  3  595  577  571
  3  77  70  67
  3  77  67  81
  3  3116  3119  3103
  3  3116  3103  3098
  3  3610  3614  3600
  3  3610  3600  3578
  3  1850  1848  1838
  3  1850  1838  1835
  3  1669  1667  1653
  3  1669  1653  1654
  3  2464  2465  2451
  3  2464  2451  2441
  3  321  316  305
  3  321  305  330
  3  2883  2882  2864
  3  2883  2864  2878
  3  909  906  895
  3  909  895  889
  3  2063  2062  2047
  3  2063  2047  2052
  3  3017  3019  3005
  3  3017  3005  2992
  3  3788  3793  3782
  3  3788  3782  3770
  3  2160  2159  2148
  3  2160  2148  2133
  3  3370  3371  3354
  3  3370  3354  3365
  3  1279  1275  1267
  3  1279  1267  1270
  3  19  15  14
  3  19  14  16
  3  2753  2758  2741
  3  2753  2724  2755
  3  1427  1425  1416
  3  1427  1416  1414
  3  3938  3941  3930
  3  3938  3930  3917
  3  3482  3486  3465
  3  3482  3465  3451
  3  2341  2340  2329
  3  2341  2329  2321
  3  688  684  676
  3  688  676  682
  3  3075  3079  3063
  3  3075  3063  3058
  3  1440  1435  1427
  3  1440  1427  1442
  3  52  49  45
  3  52  45  51
  3  791  790  778
  3  791  778  785
  3  1267  1263  1252
  3  1267  1242  1270
  3  2033  2032  2019
  3  2033  2019  2023
  3  2620  2621  2602
  3  2620  2591  2616
  3  4019  4022  4015
  3  4019  4015  4014
  3  2092  2090  2077
  3  2092  2077  2073
  3  2713  2715  2704
  3  2713  2704  2693
  3  954  949  937
  3  954  937  959
  3  2397  2396  2382
  3  2397  2382  2376
  3  1569  1566  1557
  3  1569  1557  1561
  3  3541  3545  3523
  3  3541  3523  3516
  3  2215  2216  2203
  3  2215  2203  2198
  3  544  539  527
  3  544  527  536
  3  1171  1168  1157
  3  1171  1157  1172
  3  2575  2576  2564
  3  2575  2564  2558
  3  2893  2895  2883
  3  2893  2883  2878
  3  3983  3985  3974
  3  3983  3974  3969
  3  2300  2296  2284
  3  2300  2284  2291
  3  225  220  213
  3  225  213  209
  3  3436  3443  3427
  3  3436  3427  3421
  3  107  105  101
  3  107  101  103
  3  3323  3328  3311
  3  3323  3311  3299
  3  1362  1359  1349
  3  1362  1349  1356
  3  1838  1833  1821
  3  1838  1821  1835
  3  2796  2799  2781
  3  2796  2781  2787
  3  4050  4053  4047
  3  4050  4047  4042
  3  1936  1932  1920
  3  1936  1906  1933
  3  1626  1622  1611
  3  1626  1611  1597
  3  1057  1050  1040
  3  1057  1040  1043
  3  370  364  354
  3  370  354  366
  3  3199  3202  3186
  3  3199  3186  3181
  3  866  862  852
  3  866  852  850
  3  3753  3755  3739
  3  3753  3739  3733
  3  3912  3915  3897
  3  3912  3897  3894
  3  1781  1777  1769
  3  1781  1769  1765
  3  2047  2046  2033
  3  2047  2033  2023
  3  3  1  2
  3  2781  2783  2770
  3  2781  2770  2755
  3  2108  2102  2092
  3  2108  2092  2101
  3  3311  3314  3295
  3  3311  3295  3299
  3  812  803  791
  3  812  791  818
  3  3974  3979  3968
  3  3974  3968  3969
  3  437  425  409
  3  437  409  407
  3  1455  1450  1440
  3  1455  1440  1442
  3  3427  3428  3409
  3  3427  3409  3421
  3  565  557  544
  3  565  544  571
  3  2962  2966  2952
  3  2962  2952  2932
  3  3739  3745  3724
  3  3739  3724  3733
  3  2908  2909  2893
  3  2908  2893  2878
  3  852  849  838
  3  852  838  850
  3  3553  3554  3541
  3  3553  3541  3548
  3  1920  1918  1908
  3  1920  1908  1906
  3  702  698  688
  3  702  688  682
  3  2412  2409  2397
  3  2412  2397  2405
  3  354  348  336
  3  354  336  330
  3  1374  1372  1362
  3  1374  1362  1356
  3  3640  3644  3626
  3  3640  3626  3608
  3  2564  2562  2547
  3  2564  2547  2558
  3  4055  4056  4050
  3  4055  4050  4052
  3  2203  2201  2190
  3  2203  2190  2198
  3  116  113  107
  3  116  107  103
  3  2704  2703  2687
  3  2704  2687  2693
  3  3841  3844  3833
  3  3841  3833  3819
  3  242  236  225
  3  242  225  238
  3  1557  1552  1541
  3  1557  1541  1561
  3  3919  3920  3912
  3  3919  3912  3894
  3  676  668  657
  3  676  657  682
  3  3063  3064  3047
  3  3063  3047  3031
  3  1796  1792  1781
  3  1796  1781  1793
  3  45  42  39
  3  45  38  51
  3  3213  3217  3199
  3  3213  3199  3181
  3  1071  1066  1057
  3  1071  1057  1070
  3  1252  1248  1241
  3  1252  1241  1242
  3  4015  4017  4009
  3  4015  4009  4000
  3  1598  1594  1584
  3  1598  1584  1597
  3  3523  3525  3510
  3  3523  3510  3516
  3  1893  1890  1878
  3  1893  1878  1871
  3  983  978  966
  3  983  959  989
  3  2424  2423  2412
  3  2424  2412  2405
  3  2602  2603  2588
  3  2602  2588  2591
  3  2923  2925  2908
  3  2923  2908  2905
  3  3989  3991  3983
  3  3989  3983  3986
  3  527  519  510
  3  527  502  536
  3  2977  2979  2962
  3  2977  2962  2961
  3  4029  4031  4024
  3  4029  4024  4025
  3  2077  2075  2063
  3  2077  2063  2052
  3  3281  3285  3275
  3  3281  3275  3265
  3  2019  2017  2005
  3  2019  1992  2023
  3  6  4  3
  3  6  3  8
  3  3103  3107  3085
  3  3103  3085  3098
  3  1467  1464  1455
  3  1467  1455  1442
  3  2505  2508  2490
  3  2505  2490  2476
  3  778  774  763
  3  778  754  785
  3  3963  3965  3954
  3  3963  3954  3955
  3  409  401  389
  3  409  389  407
  3  3186  3191  3173
  3  3186  3173  3157
  3  1227  1223  1214
  3  1227  1214  1209
  3  1653  1651  1641
  3  1653  1631  1654
  3  1086  1081  1071
  3  1086  1071  1070
  3  3782  3784  3761
  3  3782  3761  3770
  3  1807  1804  1796
  3  1807  1796  1793
  3  2732  2729  2713
  3  2732  2713  2724
  3  3897  3902  3891
  3  3897  3891  3894
  3  642  636  625
  3  642  625  618
  3  2826  2825  2809
  3  2826  2809  2819
  3  4057  4059  4055
  3  4057  4055  4052
  3  2176  2175  2160
  3  2176  2160  2165
  3  1349  1345  1336
  3  1349  1324  1356
  3  3654  3658  3640
  3  3654  3640  3637
  3  2329  2322  2312
  3  2329  2312  2321
  3  101  95  93
  3  101  93  103
  3  256  251  242
  3  256  242  238
  3  2679  2677  2659
  3  2679  2659  2665
  3  2936  2938  2923
  3  2936  2923  2905
  3  838  831  823
  3  838  823  818
  3  3891  3893  3875
  3  3891  3875  3869
  3  2988  2993  2977
  3  2988  2977  2961
  3  3761  3765  3753
  3  3761  3753  3733
  3  2440  2437  2424
  3  2440  2424  2441
  3  389  382  370
  3  389  370  366
  3  1387  1382  1374
  3  1387  1374  1381
  3  1908  1904  1893
  3  1908  1893  1906
  3  1641  1637  1626
  3  1641  1626  1631
  3  1484  1480  1467
  3  1484  1467  1472
  3  3409  3414  3397
  3  3409  3397  3389
  3  93  90  83
  3  93  83  81
  3  3968  3972  3963
  3  3968  3963  3955
  3  2312  2311  2300
  3  2312  2300  2291
  3  10  7  6
  3  10  6  8
  3  3295  3300  3281
  3  3295  3281  3265
  3  2809  2811  2796
  3  2809  2796  2787
  3  1336  1332  1321
  3  1336  1321  1324
  3  1821  1820  1807
  3  1821  1807  1793
  3  39  37  34
  3  39  34  38
  3  763  760  751
  3  763  751  754
  3  657  653  642
  3  657  642  650
  3  3085  3091  3075
  3  3085  3075  3058
  3  1099  1095  1086
  3  1099  1086  1104
  3  4024  4027  4019
  3  4024  4019  4014
  3  173  168  159
  3  173  159  178
  3  1241  1235  1227
  3  1241  1227  1242
  3  2005  2003  1994
  3  2005  1994  1992
  3  273  267  256
  3  273  256  265
  3  1584  1581  1569
  3  1584  1569  1561
  3  3510  3515  3493
  3  3510  3493  3483
  3  2687  2688  2679
  3  2687  2679  2665
  3  966  963  954
  3  966  954  959
  3  3666  3672  3654
  3  3666  3654  3637
  3  2190  2188  2176
  3  2190  2176  2165
  3  2588  2590  2575
  3  2588  2575  2558
  3  510  505  490
  3  510  490  502
  3  4061  4057  4060
  3  3816  3832  3801
  3  4054  4058  4052
  3  357  375  371
  3  5  9  8
  3  3832  3842  3817
  3  4051  4054  4048
  3  9  13  12
  3  334  357  346
  3  3842  3860  3837
  3  4046  4051  4044
  3  13  20  17
  3  315  334  325
  3  3860  3870  3843
  3  4040  4046  4037
  3  20  26  23
  3  292  315  304
  3  4048  4054  4052
  3  4051  4048  4044
  3  4044  4048  4039
  3  346  357  371
  3  334  346  325
  3  325  346  338
  3  3817  3842  3837
  3  3817  3837  3806
  3  3832  3817  3801
  3  12  13  17
  3  12  17  18
  3  9  12  8
  3  270  292  280
  3  3870  3888  3865
  3  4035  4040  4032
  3  26  33  31
  3  315  325  304
  3  304  325  338
  3  3837  3860  3843
  3  3837  3843  3806
  3  4046  4044  4037
  3  4037  4044  4039
  3  17  20  23
  3  17  23  18
  3  245  270  257
  3  3888  3896  3872
  3  4028  4035  4023
  3  33  43  40
  3  4048  4052  4039
  3  8  12  18
  3  346  371  338
  3  1567  1572  1551
  3  1339  1363  1368
  3  791  785  818
  3  3597  3605  3620
  3  2106  2118  2091
  3  2500  2505  2476
  3  3181  3186  3157
  3  399  376  371
  3  2851  2846  2877
  3  39  38  45
  3  502  476  455
  3  623  610  608
  3  1711  1712  1685
  3  1850  1835  1864
  3  433  398  420
  3  414  450  432
  3  125  116  103
  3  2516  2521  2545
  3  2265  2267  2293
  3  1185  1172  1200
  3  1765  1755  1735
  3  2568  2581  2545
  3  3608  3610  3578
  3  3323  3299  3331
  3  3346  3368  3343
  3  997  989  1011
  3  2665  2659  2640
  3  3041  3039  3071
  3  2761  2774  2793
  3  2932  2936  2905
  3  2092  2073  2101
  3  3142  3168  3134
  3  3705  3704  3741
  3  3733  3724  3698
  3  2634  2641  2674
  3  2076  2085  2061
  3  3668  3666  3637
  3  3983  3969  3986
  3  2877  2890  2912
  3  16  10  8
  3  763  754  778
  3  3653  3662  3684
  3  2961  2962  2932
  3  8  3  5
  3  3968  3955  3969
  3  1283  1292  1311
  3  3157  3158  3129
  3  1472  1467  1442
  3  3524  3522  3556
  3  1444  1449  1430
  3  3917  3919  3894
  3  4042  4043  4034
  3  3762  3776  3801
  3  3058  3063  3031
  3  292  304  280
  3  280  304  286
  3  599  587  567
  3  1669  1654  1685
  3  1631  1626  1597
  3  959  937  923
  3  3620  3631  3653
  3  4014  4015  4000
  3  510  502  527
  3  493  524  520
  3  3741  3730  3762
  3  2133  2121  2101
  3  2312  2291  2321
  3  3433  3459  3424
  3  2803  2821  2793
  3  2591  2588  2558
  3  575  567  540
  3  1948  1933  1960
  3  1043  1040  1018
  3  3265  3253  3232
  3  2000  2008  1983
  3  2844  2838  2819
  3  265  256  238
  3  1393  1402  1422
  3  1111  1139  1142
  3  1920  1906  1936
  3  4040  4037  4032
  3  4032  4037  4026
  3  2222  2236  2208
  3  3436  3421  3455
  3  3869  3875  3846
  3  3201  3225  3198
  3  520  543  540
  3  3232  3240  3208
  3  2713  2693  2724
  3  632  655  660
  3  3208  3213  3181
  3  2992  2988  2961
  3  406  381  376
  3  2611  2610  2634
  3  2905  2908  2878
  3  657  650  682
  3  2118  2137  2149
  3  2630  2616  2640
  3  2376  2368  2349
  3  3801  3789  3816
  3  2313  2324  2293
  3  1442  1427  1414
  3  3389  3397  3365
  3  1012  1010  996
  3  3578  3580  3548
  3  3841  3819  3854
  3  1278  1283  1255
  3  3113  3134  3099
  3  1735  1726  1711
  3  366  354  330
  3  3492  3491  3524
  3  52  51  64
  3  1082  1084  1055
  3  1228  1251  1255
  3  1252  1242  1267
  3  1070  1057  1043
  3  2194  2208  2179
  3  2598  2611  2581
  3  2519  2500  2526
  3  2995  3011  2986
  3  2236  2252  2265
  3  2878  2864  2844
  3  2165  2160  2133
  3  1925  1934  1909
  3  3788  3770  3805
  3  2291  2284  2261
  3  800  795  781
  3  1226  1228  1212
  3  2547  2526  2558
  3  2687  2665  2693
  3  2342  2354  2328
  3  2405  2397  2376
  3  3955  3954  3937
  3  2489  2495  2516
  3  1449  1460  1478
  3  3637  3640  3608
  3  432  469  453
  3  2741  2724  2753
  3  209  199  178
  3  1513  1521  1542
  3  3690  3705  3675
  3  3819  3815  3790
  3  4052  4050  4042
  3  2682  2702  2674
  3  305  295  330
  3  1484  1472  1495
  3  2385  2388  2417
  3  381  415  386
  3  3891  3869  3894
  3  650  642  618
  3  1688  1694  1672
  3  238  225  209
  3  2602  2591  2620
  3  3317  3343  3313
  3  2354  2369  2385
  3  2215  2198  2227
  3  38  29  25
  3  3011  3009  3041
  3  1541  1524  1561
  3  273  265  295
  3  1506  1513  1491
  3  2731  2727  2761
  3  150  138  125
  3  3801  3817  3806
  3  3574  3597  3556
  3  3354  3331  3365
  3  1992  1977  1960
  3  1162  1182  1192
  3  1113  1111  1097
  3  4034  4038  4025
  3  2073  2077  2052
  3  2711  2731  2702
  3  2052  2047  2023
  3  866  850  889
  3  1391  1393  1376
  3  437  407  455
  3  2005  1992  2019
  3  3843  3870  3865
  3  3843  3865  3840
  3  453  482  472
  3  4000  4003  3986
  3  1279  1270  1293
  3  3288  3313  3283
  3  694  686  681
  3  1157  1140  1172
  3  3541  3516  3548
  3  3259  3283  3254
  3  3230  3254  3225
  3  1512  1499  1524
  3  3172  3198  3168
  3  2149  2167  2179
  3  67  64  81
  3  3404  3429  3399
  3  2430  2452  2417
  3  754  734  717
  3  472  504  493
  3  610  635  632
  3  2341  2321  2351
  3  3409  3389  3421
  3  398  438  414
  3  3116  3098  3132
  3  2424  2405  2441
  3  903  896  886
  3  1334  1339  1311
  3  1414  1400  1381
  3  966  959  983
  3  1803  1811  1789
  3  1793  1781  1765
  3  1324  1306  1296
  3  3084  3099  3069
  3  1169  1162  1154
  3  3483  3482  3451
  3  544  536  571
  3  3376  3399  3368
  3  2787  2781  2755
  3  4057  4052  4058
  3  393  371  375
  3  2831  2851  2821
  3  1641  1631  1653
  3  2920  2939  2912
  3  1086  1070  1104
  3  1336  1324  1349
  3  23  26  31
  3  23  31  30
  3  3896  3914  3890
  3  4020  4028  4016
  3  43  54  50
  3  222  245  234
  3  3865  3888  3872
  3  3865  3872  3840
  3  270  280  257
  3  257  280  286
  3  4035  4032  4023
  3  4023  4032  4026
  3  31  33  40
  3  31  40  30
  3  3914  3928  3899
  3  4013  4020  4005
  3  54  66  62
  3  197  222  211
  3  245  257  234
  3  234  257  249
  3  4028  4023  4016
  3  4016  4023  4010
  3  4002  4013  3997
  3  3872  3896  3890
  3  3872  3890  3863
  3  40  43  50
  3  40  50  44
  3  175  197  188
  3  3928  3939  3918
  3  66  80  75
  3  153  175  164
  3  3939  3953  3936
  3  3990  4002  3987
  3  80  94  91
  3  4020  4016  4005
  3  4005  4016  4001
  3  222  234  211
  3  211  234  224
  3  3890  3914  3899
  3  3890  3899  3873
  3  50  54  62
  3  50  62  57
  3  286  304  338
  3  4026  4037  4039
  3  3843  3840  3806
  3  23  30  18
  3  249  257  286
  3  4010  4023  4026
  3  3863  3890  3873
  3  3863  3873  3845
  3  44  50  57
  3  44  57  55
  3  234  249  224
  3  224  249  243
  3  4016  4010  4001
  3  4001  4010  3996
  3  3872  3863  3840
  3  40  44  30
  3  243  249  272
  3  224  243  215
  3  3845  3873  3868
  3  55  57  69
  3  3996  4010  4008
  3  3863  3845  3829
  3  44  55  41
  3  4001  3996  3984
  3  3873  3899  3895
  3  57  62  72
  3  4005  4001  3988
  3  211  224  196
  3  3980  3990  3973
  3  131  153  142
  3  3953  3967  3940
  3  3899  3928  3918
  3  3899  3918  3895
  3  3895  3918  3916
  3  62  66  75
  3  62  75  72
  3  72  75  88
  3  94  111  102
  3  4013  4005  3997
  3  3997  4005  3988
  3  3997  3988  3977
  3  197  211  188
  3  188  211  196
  3  188  196  171
  3  4002  3997  3987
  3  3987  3997  3977
  3  3987  3977  3973
  3  3987  3973  3990
  3  175  188  164
  3  164  188  171
  3  164  171  142
  3  164  142  153
  3  3918  3939  3936
  3  3918  3936  3916
  3  3916  3936  3940
  3  3940  3936  3953
  3  88  75  91
  3  88  91  102
  3  91  75  80
  3  102  91  94
  3  171  196  186
  3  3895  3916  3892
  3  3977  3988  3971
  3  72  88  85
  3  272  249  286
  3  4008  4010  4026
  3  3868  3873  3895
  3  3868  3895  3892
  3  41  55  53
  3  3988  4001  3984
  3  3988  3984  3971
  3  215  243  231
  3  3829  3845  3814
  3  69  57  72
  3  69  72  85
  3  3984  3996  3975
  3  196  224  215
  3  196  215  186
  3  243  272  264
  3  3996  4008  3993
  3  3980  3973  3959
  3  3845  3868  3838
  3  44  41  30
  3  3863  3829  3840
  3  131  142  118
  3  55  69  68
  3  3940  3967  3959
  3  3959  3967  3980
  3  3940  3959  3935
  3  102  111  118
  3  118  111  131
  3  102  118  117
  3  3935  3959  3951
  3  3940  3913  3916
  3  117  118  136
  3  102  100  88
  3  3892  3916  3913
  3  85  88  100
  3  171  186  157
  3  3977  3971  3957
  3  818  785  797
  3  536  502  515
  3  3790  3770  3760
  3  1172  1140  1155
  3  3733  3698  3694
  3  2905  2878  2874
  3  2616  2591  2587
  3  1654  1631  1634
  3  1209  1172  1183
  3  265  238  250
  3  209  178  195
  3  2441  2405  2408
  3  1472  1442  1446
  3  1735  1711  1718
  3  4034  4025  4021
  3  502  455  480
  3  1960  1933  1941
  3  2405  2376  2381
  3  754  717  739
  3  785  754  768
  3  1442  1414  1421
  3  295  265  278
  3  1018  989  998
  3  3232  3208  3205
  3  1499  1472  1477
  3  1324  1296  1303
  3  1685  1654  1663
  3  1070  1043  1056
  3  455  407  443
  3  3181  3157  3149
  3  2321  2291  2299
  3  2558  2526  2530
  3  1524  1499  1505
  3  3986  3969  3966
  3  2640  2616  2617
  3  38  25  35
  3  1356  1324  1331
  3  3608  3578  3570
  3  3451  3421  3418
  3  4052  4042  4039
  3  989  959  968
  3  4042  4034  4030
  3  64  51  61
  3  2052  2023  2024
  3  1871  1835  1842
  3  3265  3232  3231
  3  3637  3608  3596
  3  3421  3389  3379
  3  3969  3955  3950
  3  3578  3548  3542
  3  3365  3331  3329
  3  2932  2905  2896
  3  3208  3181  3178
  3  650  618  630
  3  571  536  548
  3  959  923  938
  3  2878  2844  2849
  3  4000  3986  3982
  3  2500  2476  2481
  3  2133  2101  2109
  3  2291  2261  2264
  3  3548  3516  3513
  3  3668  3637  3624
  3  682  650  663
  3  2232  2198  2195
  3  1104  1070  1085
  3  1765  1735  1747
  3  1933  1906  1912
  3  3819  3790  3786
  3  1414  1381  1396
  3  3917  3894  3889
  3  366  330  345
  3  2073  2052  2053
  3  1711  1685  1691
  3  1043  1018  1027
  3  3955  3937  3934
  3  2349  2321  2326
  3  2961  2932  2929
  3  3389  3365  3357
  3  150  125  137
  3  2665  2640  2645
  3  2724  2693  2697
  3  3894  3869  3866
  3  3483  3451  3440
  3  1631  1597  1604
  3  2526  2500  2502
  3  2023  1992  1997
  3  51  38  47
  3  2591  2558  2556
  3  2693  2665  2671
  3  81  64  76
  3  16  8  18
  3  2376  2349  2352
  3  1561  1524  1534
  3  3331  3299  3303
  3  3869  3846  3839
  3  330  295  312
  3  1793  1765  1776
  3  3058  3031  3029
  3  1270  1242  1249
  3  889  850  875
  3  125  103  115
  3  2844  2819  2817
  3  2755  2724  2721
  3  3129  3098  3096
  3  3157  3129  3115
  3  3846  3819  3812
  3  1992  1960  1968
  3  2101  2073  2080
  3  2992  2961  2957
  3  238  209  221
  3  2787  2755  2756
  3  4014  4000  3992
  3  2165  2133  2136
  3  1296  1270  1276
  3  53  55  68
  3  2381  2376  2352
  3  2381  2352  2358
  3  2358  2352  2330
  3  2381  2358  2384
  3  3329  3331  3303
  3  3329  3303  3296
  3  3296  3303  3269
  3  3329  3296  3325
  3  3866  3869  3839
  3  3866  3839  3835
  3  3835  3839  3809
  3  3866  3835  3861
  3  515  502  480
  3  515  480  499
  3  499  480  461
  3  515  499  535
  3  3966  3969  3950
  3  3966  3950  3947
  3  3947  3950  3929
  3  3966  3947  3958
  3  1747  1735  1718
  3  1747  1718  1725
  3  1725  1718  1698
  3  1747  1725  1754
  3  1249  1242  1224
  3  118  142  136
  3  136  142  157
  3  1303  1296  1276
  3  1303  1276  1285
  3  1285  1276  1260
  3  1303  1285  1312
  3  2481  2476  2449
  3  76  64  61
  3  76  61  73
  3  73  61  58
  3  76  73  89
  3  250  238  221
  3  250  221  239
  3  239  221  210
  3  250  239  269
  3  61  51  47
  3  61  47  58
  3  58  47  46
  3  46  47  35
  3  35  47  38
  3  46  35  36
  3  58  46  59
  3  36  35  27
  3  46  36  48
  3  27  35  25
  3  27  25  16
  3  36  27  28
  3  48  36  41
  3  46  48  59
  3  59  48  63
  3  63  48  53
  3  63  53  68
  3  59  63  74
  3  58  59  71
  3  74  63  78
  3  59  74  71
  3  71  74  87
  3  87  74  92
  3  71  87  86
  3  1027  1018  998
  3  1027  998  1008
  3  1008  998  980
  3  1027  1008  1038
  3  1968  1960  1941
  3  1968  1941  1946
  3  1946  1941  1917
  3  1968  1946  1974
  3  264  272  296
  3  278  265  250
  3  278  250  269
  3  278  269  302
  3  302  269  289
  3  278  302  312
  3  312  302  333
  3  278  312  295
  3  333  302  320
  3  312  333  345
  3  345  333  365
  3  312  345  330
  3  365  333  351
  3  345  365  378
  3  320  302  289
  3  320  289  309
  3  309  289  277
  3  320  309  343
  3  351  333  320
  3  351  320  343
  3  351  343  372
  3  372  343  363
  3  351  372  383
  3  378  365  402
  3  365  351  383
  3  365  383  402
  3  402  383  429
  3  429  383  410
  3  402  429  461
  3  345  378  366
  3  366  378  407
  3  289  269  255
  3  309  277  301
  3  363  343  332
  3  383  372  410
  3  410  372  396
  3  396  372  363
  3  410  396  442
  3  396  363  388
  3  388  363  355
  3  396  388  431
  3  442  396  431
  3  442  431  470
  3  410  442  452
  3  355  363  332
  3  355  332  322
  3  322  332  301
  3  322  301  294
  3  355  322  350
  3  294  301  271
  3  322  294  319
  3  388  355  380
  3  431  388  418
  3  350  322  319
  3  350  319  344
  3  355  350  380
  3  380  350  373
  3  373  350  344
  3  373  344  368
  3  368  344  341
  3  373  368  404
  3  380  373  411
  3  344  319  314
  3  341  344  314
  3  341  314  311
  3  311  314  283
  3  341  311  339
  3  368  341  369
  3  404  368  403
  3  277  289  255
  3  277  255  248
  3  248  255  226
  3  277  248  271
  3  271  248  241
  3  241  248  218
  3  271  241  262
  3  343  309  332
  3  332  309  301
  3  470  431  466
  3  548  536  515
  3  548  515  535
  3  548  535  569
  3  569  535  551
  3  548  569  592
  3  551  535  516
  3  569  551  586
  3  592  569  602
  3  548  592  571
  3  571  592  618
  3  1997  1992  1968
  3  1997  1968  1974
  3  1997  1974  2001
  3  2001  1974  1981
  3  1997  2001  2024
  3  2024  2001  2030
  3  1997  2024  2023
  3  2030  2001  2009
  3  2024  2030  2053
  3  2053  2030  2060
  3  2024  2053  2052
  3  2060  2030  2036
  3  2053  2060  2080
  3  2080  2060  2088
  3  2053  2080  2073
  3  2088  2060  2064
  3  2080  2088  2109
  3  2109  2088  2115
  3  2080  2109  2101
  3  2115  2088  2093
  3  2109  2115  2136
  3  2136  2115  2141
  3  2109  2136  2133
  3  2141  2115  2122
  3  2136  2141  2164
  3  2064  2060  2036
  3  2064  2036  2041
  3  2041  2036  2012
  3  2064  2041  2070
  3  2093  2088  2064
  3  2093  2064  2070
  3  2093  2070  2099
  3  2099  2070  2079
  3  2093  2099  2122
  3  2122  2099  2127
  3  2093  2122  2115
  3  2127  2099  2105
  3  2122  2127  2150
  3  2164  2141  2168
  3  2105  2099  2079
  3  2105  2079  2083
  3  2083  2079  2055
  3  2105  2083  2113
  3  2127  2105  2134
  3  2122  2150  2141
  3  2141  2150  2168
  3  2168  2150  2178
  3  2178  2150  2153
  3  2168  2178  2195
  3  2136  2164  2165
  3  2165  2164  2198
  3  2150  2127  2153
  3  2153  2127  2134
  3  2153  2134  2163
  3  2163  2134  2143
  3  2153  2163  2182
  3  2009  2001  1981
  3  2009  1981  1986
  3  1986  1981  1957
  3  2009  1986  2012
  3  2012  1986  1991
  3  2009  2012  2036
  3  1991  1986  1963
  3  2012  1991  2021
  3  2009  2036  2030
  3  2153  2182  2178
  3  2178  2182  2205
  3  2205  2182  2209
  3  2178  2205  2195
  3  2209  2182  2187
  3  2205  2209  2238
  3  2021  1991  1999
  3  2163  2143  2173
  3  1963  1986  1957
  3  1963  1957  1935
  3  1935  1957  1927
  3  1963  1935  1943
  3  2182  2163  2187
  3  2187  2163  2173
  3  2187  2173  2200
  3  2200  2173  2184
  3  2187  2219  2209
  3  2184  2173  2155
  3  2200  2184  2213
  3  2012  2021  2041
  3  2041  2021  2049
  3  2049  2021  2028
  3  2041  2049  2070
  3  2070  2049  2079
  3  2079  2049  2055
  3  2028  2021  1999
  3  2028  1999  2007
  3  2007  1999  1978
  3  2028  2007  2037
  3  2049  2028  2055
  3  2055  2028  2037
  3  2055  2037  2065
  3  2065  2037  2042
  3  2055  2065  2083
  3  2083  2065  2094
  3  2094  2065  2071
  3  2083  2094  2113
  3  2113  2094  2123
  3  2123  2094  2100
  3  2113  2123  2143
  3  2143  2123  2155
  3  2042  2037  2015
  3  2065  2042  2071
  3  2071  2042  2051
  3  2051  2042  2022
  3  2071  2051  2082
  3  2094  2071  2100
  3  2100  2071  2082
  3  2100  2082  2110
  3  2110  2082  2089
  3  2100  2110  2129
  3  2123  2100  2129
  3  2123  2129  2155
  3  1978  1999  1971
  3  2037  2007  2015
  3  2015  2007  1984
  3  1984  2007  1978
  3  2015  1984  1995
  3  1984  1978  1955
  3  2089  2082  2059
  3  2051  2022  2029
  3  2129  2110  2139
  3  2022  2042  2015
  3  2022  2015  1995
  3  2022  1995  2002
  3  2002  1995  1973
  3  2022  2002  2029
  3  2029  2002  2011
  3  2011  2002  1982
  3  2029  2011  2040
  3  1982  2002  1973
  3  1982  1973  1953
  3  1953  1973  1945
  3  1982  1953  1961
  3  2011  1982  1988
  3  2040  2011  2020
  3  2029  2040  2059
  3  2059  2040  2069
  3  2069  2040  2048
  3  2059  2069  2089
  3  2089  2069  2098
  3  2098  2069  2078
  3  2089  2098  2117
  3  1973  1995  1966
  3  1982  1961  1988
  3  1988  1961  1970
  3  1970  1961  1942
  3  1988  1970  1998
  3  2089  2117  2110
  3  2110  2117  2139
  3  2139  2117  2147
  3  1953  1945  1923
  3  2098  2078  2107
  3  1945  1973  1966
  3  1945  1966  1937
  3  1937  1966  1955
  3  1945  1937  1916
  3  1937  1955  1926
  3  1926  1955  1951
  3  1937  1926  1907
  3  1961  1953  1931
  3  2078  2069  2048
  3  2078  2048  2058
  3  2058  2048  2027
  3  2078  2058  2087
  3  2117  2098  2128
  3  2048  2040  2020
  3  2048  2020  2027
  3  2027  2020  1998
  3  2027  1998  2010
  3  2010  1998  1979
  3  2027  2010  2039
  3  1998  1970  1979
  3  1937  1907  1916
  3  1916  1907  1887
  3  1887  1907  1880
  3  1916  1887  1897
  3  1942  1961  1931
  3  1942  1931  1911
  3  1911  1931  1903
  3  1942  1911  1921
  3  1903  1931  1923
  3  1911  1903  1882
  3  1942  1921  1950
  3  1945  1916  1923
  3  1923  1916  1897
  3  1923  1897  1903
  3  1903  1897  1875
  3  1875  1897  1868
  3  1903  1875  1882
  3  1882  1875  1855
  3  1868  1897  1887
  3  1868  1887  1859
  3  1859  1887  1880
  3  1868  1859  1839
  3  1859  1880  1852
  3  1852  1880  1874
  3  1859  1852  1828
  3  1855  1875  1847
  3  1882  1855  1861
  3  1839  1859  1828
  3  1839  1828  1809
  3  1868  1839  1847
  3  1847  1839  1817
  3  1817  1839  1809
  3  1847  1817  1826
  3  1817  1809  1790
  3  1790  1809  1783
  3  1817  1790  1799
  3  1783  1809  1802
  3  1790  1783  1763
  3  1799  1790  1771
  3  1817  1799  1826
  3  1826  1799  1805
  3  1805  1799  1779
  3  1826  1805  1836
  3  1875  1868  1847
  3  1852  1874  1846
  3  1809  1828  1802
  3  1802  1828  1823
  3  1823  1828  1852
  3  1802  1823  1797
  3  1823  1852  1846
  3  1823  1846  1816
  3  1847  1826  1855
  3  1855  1826  1836
  3  1855  1836  1861
  3  1861  1836  1843
  3  1843  1836  1814
  3  1861  1843  1870
  3  1814  1836  1805
  3  1814  1805  1786
  3  1786  1805  1779
  3  1786  1779  1759
  3  1814  1786  1798
  3  1759  1779  1752
  3  1786  1759  1770
  3  1798  1786  1770
  3  1798  1770  1780
  3  1814  1798  1825
  3  1780  1770  1749
  3  1798  1780  1806
  3  1843  1814  1825
  3  1843  1825  1854
  3  1854  1825  1830
  3  1843  1854  1870
  3  1870  1854  1881
  3  1881  1854  1862
  3  1870  1881  1899
  3  1830  1825  1806
  3  1830  1806  1815
  3  1806  1825  1798
  3  1815  1806  1787
  3  1830  1815  1844
  3  1854  1830  1862
  3  1815  1787  1800
  3  1830  1844  1862
  3  1862  1844  1873
  3  1873  1844  1853
  3  1862  1873  1891
  3  1787  1806  1780
  3  1787  1780  1761
  3  1761  1780  1749
  3  1761  1749  1731
  3  1787  1761  1772
  3  1731  1749  1720
  3  1761  1731  1743
  3  1772  1761  1743
  3  1772  1743  1756
  3  1756  1743  1727
  3  1772  1756  1784
  3  1787  1772  1800
  3  1800  1772  1784
  3  1844  1815  1827
  3  1861  1870  1889
  3  1853  1844  1827
  3  1853  1827  1834
  3  1834  1827  1811
  3  1834  1811  1832
  3  1853  1834  1857
  3  1857  1834  1832
  3  1720  1749  1744
  3  1759  1752  1730
  3  1891  1873  1902
  3  1743  1731  1713
  3  1752  1779  1771
  3  1771  1779  1799
  3  1752  1771  1745
  3  1745  1771  1763
  3  1752  1745  1724
  3  1745  1763  1734
  3  1734  1763  1757
  3  1745  1734  1714
  3  1724  1745  1714
  3  1724  1714  1695
  3  1695  1714  1687
  3  1724  1695  1705
  3  1752  1724  1730
  3  1730  1724  1705
  3  1730  1705  1715
  3  1715  1705  1686
  3  1730  1715  1744
  3  1744  1715  1720
  3  1720  1715  1693
  3  1693  1715  1686
  3  1693  1686  1665
  3  1720  1693  1704
  3  1665  1686  1659
  3  1693  1665  1676
  3  1686  1705  1675
  3  1665  1659  1636
  3  1693  1676  1704
  3  1704  1676  1683
  3  1683  1676  1657
  3  1704  1683  1713
  3  1713  1683  1694
  3  1659  1686  1675
  3  1659  1675  1648
  3  1648  1675  1671
  3  1659  1648  1627
  3  1676  1665  1645
  3  1873  1853  1883
  3  1731  1720  1704
  3  1731  1704  1713
  3  1770  1759  1744
  3  1744  1759  1730
  3  1770  1744  1749
  3  1862  1891  1881
  3  1881  1891  1910
  3  1910  1891  1919
  3  1881  1910  1899
  3  1899  1910  1929
  3  1757  1763  1783
  3  1695  1687  1671
  3  1671  1687  1660
  3  1695  1671  1675
  3  1660  1687  1679
  3  1671  1660  1640
  3  1695  1675  1705
  3  1679  1687  1706
  3  1660  1679  1649
  3  1640  1660  1628
  3  1671  1640  1648
  3  1648  1640  1619
  3  1619  1640  1614
  3  1648  1619  1627
  3  1627  1619  1599
  3  1599  1619  1590
  3  1627  1599  1609
  3  1614  1640  1628
  3  1614  1628  1600
  3  1600  1628  1620
  3  1614  1600  1582
  3  1619  1614  1590
  3  1590  1614  1582
  3  1590  1582  1562
  3  1562  1582  1553
  3  1590  1562  1576
  3  1620  1628  1649
  3  1620  1649  1643
  3  1643  1649  1670
  3  1620  1643  1612
  3  1582  1600  1571
  3  1562  1553  1533
  3  1590  1576  1599
  3  1599  1576  1585
  3  1585  1576  1554
  3  1599  1585  1609
  3  1609  1585  1592
  3  1592  1585  1565
  3  1609  1592  1623
  3  1554  1576  1549
  3  1585  1554  1565
  3  1600  1620  1591
  3  1553  1582  1571
  3  1553  1571  1547
  3  1547  1571  1564
  3  1553  1547  1525
  3  1576  1562  1549
  3  1549  1562  1533
  3  1549  1533  1518
  3  1518  1533  1504
  3  1549  1518  1531
  3  1627  1609  1636
  3  1636  1609  1623
  3  1627  1636  1659
  3  1636  1623  1645
  3  1645  1623  1629
  3  1629  1623  1602
  3  1645  1629  1657
  3  1602  1623  1592
  3  1602  1592  1575
  3  1657  1629  1639
  3  1645  1657  1676
  3  1575  1592  1565
  3  1575  1565  1548
  3  1602  1575  1583
  3  1548  1565  1537
  3  1575  1548  1558
  3  1639  1629  1608
  3  1657  1639  1666
  3  1629  1602  1608
  3  1583  1575  1558
  3  1583  1558  1572
  3  1602  1583  1608
  3  1608  1583  1572
  3  1537  1565  1554
  3  1537  1554  1531
  3  1531  1554  1549
  3  1537  1531  1508
  3  1508  1531  1502
  3  1537  1508  1520
  3  1548  1537  1520
  3  1548  1520  1530
  3  1530  1520  1500
  3  1548  1530  1558
  3  1520  1508  1490
  3  1547  1564  1536
  3  1553  1525  1533
  3  1533  1525  1504
  3  1500  1520  1490
  3  1500  1490  1470
  3  1470  1490  1459
  3  1500  1470  1475
  3  1564  1571  1591
  3  1564  1591  1586
  3  1525  1547  1517
  3  1530  1500  1513
  3  1670  1649  1679
  3  1670  1679  1700
  3  1643  1670  1662
  3  1612  1643  1632
  3  1470  1459  1438
  3  1870  1899  1889
  3  1889  1899  1921
  3  1921  1899  1929
  3  1921  1929  1950
  3  1950  1929  1958
  3  1958  1929  1939
  3  1950  1958  1979
  3  1950  1979  1970
  3  1950  1970  1942
  3  1979  1958  1987
  3  1714  1734  1706
  3  1706  1734  1728
  3  1728  1734  1757
  3  1728  1757  1748
  3  1706  1728  1700
  3  1748  1757  1775
  3  1728  1748  1719
  3  1459  1490  1482
  3  1500  1475  1513
  3  1874  1880  1901
  3  1620  1612  1591
  3  1591  1612  1586
  3  1586  1612  1605
  3  1605  1612  1632
  3  1605  1632  1625
  3  1625  1632  1652
  3  1605  1625  1596
  3  1652  1632  1662
  3  1652  1662  1682
  3  1682  1662  1689
  3  1652  1682  1674
  3  1625  1652  1646
  3  1596  1625  1615
  3  1605  1596  1578
  3  1586  1605  1578
  3  1586  1578  1556
  3  1556  1578  1550
  3  1586  1556  1564
  3  1564  1556  1536
  3  1536  1556  1528
  3  1528  1556  1550
  3  1536  1528  1507
  3  1528  1550  1522
  3  1550  1578  1570
  3  1522  1550  1545
  3  1528  1522  1501
  3  1689  1662  1670
  3  1689  1670  1700
  3  1689  1700  1719
  3  1674  1682  1702
  3  1536  1507  1517
  3  1682  1689  1710
  3  1652  1674  1646
  3  1646  1674  1668
  3  1668  1674  1697
  3  1646  1668  1638
  3  1697  1674  1702
  3  1697  1702  1723
  3  1723  1702  1729
  3  1697  1723  1716
  3  1668  1697  1690
  3  1646  1638  1615
  3  1615  1638  1610
  3  1610  1638  1635
  3  1615  1610  1589
  3  1723  1729  1750
  3  1697  1716  1690
  3  1690  1716  1709
  3  1709  1716  1738
  3  1690  1709  1681
  3  1738  1716  1742
  3  1709  1738  1733
  3  1681  1709  1703
  3  1690  1681  1661
  3  1638  1668  1661
  3  1661  1668  1690
  3  1638  1661  1635
  3  1635  1661  1658
  3  1658  1661  1681
  3  1658  1681  1678
  3  1678  1681  1703
  3  1658  1678  1650
  3  1678  1703  1698
  3  1635  1658  1630
  3  1650  1678  1673
  3  1658  1650  1630
  3  1630  1650  1621
  3  1621  1650  1644
  3  1630  1621  1601
  3  1644  1650  1673
  3  1644  1673  1663
  3  1621  1644  1618
  3  1601  1621  1593
  3  1729  1702  1710
  3  1729  1710  1739
  3  1739  1710  1719
  3  1729  1739  1758
  3  1739  1719  1748
  3  1716  1723  1742
  3  1742  1723  1750
  3  1742  1750  1773
  3  1630  1601  1606
  3  1773  1750  1778
  3  1742  1773  1764
  3  1475  1470  1451
  3  1507  1528  1501
  3  1687  1714  1706
  3  1929  1910  1939
  3  1939  1910  1919
  3  1939  1919  1949
  3  1949  1919  1930
  3  1939  1949  1967
  3  1683  1657  1666
  3  1683  1666  1694
  3  1919  1891  1902
  3  1919  1902  1930
  3  1930  1902  1913
  3  1490  1508  1482
  3  1482  1508  1502
  3  1502  1531  1518
  3  1502  1518  1492
  3  1482  1502  1471
  3  1492  1518  1504
  3  1492  1504  1476
  3  1502  1492  1471
  3  1476  1504  1498
  3  1492  1476  1458
  3  1471  1492  1458
  3  1471  1458  1448
  3  1448  1458  1432
  3  1471  1448  1482
  3  1498  1504  1525
  3  1498  1525  1517
  3  1498  1517  1487
  3  1487  1517  1507
  3  1498  1487  1468
  3  1476  1498  1468
  3  1476  1468  1447
  3  1447  1468  1439
  3  1476  1447  1458
  3  1458  1447  1432
  3  1432  1447  1423
  3  1423  1447  1439
  3  1432  1423  1404
  3  1423  1439  1415
  3  1448  1432  1417
  3  1439  1468  1461
  3  1468  1487  1461
  3  1461  1487  1479
  3  1479  1487  1507
  3  1461  1479  1441
  3  1479  1507  1501
  3  1404  1423  1395
  3  1432  1404  1417
  3  1417  1404  1389
  3  1441  1479  1469
  3  1461  1441  1433
  3  1913  1902  1883
  3  1415  1439  1433
  3  1433  1439  1461
  3  1415  1433  1413
  3  1413  1433  1441
  3  1415  1413  1388
  3  1388  1413  1384
  3  1415  1388  1395
  3  1930  1913  1940
  3  1423  1415  1395
  3  1921  1911  1889
  3  1889  1911  1882
  3  1889  1882  1861
  3  1816  1846  1837
  3  1967  1949  1980
  3  1417  1389  1399
  3  1926  1951  1922
  3  2087  2058  2068
  3  1958  1939  1967
  3  1958  1967  1987
  3  1987  1967  1996
  3  1996  1967  1980
  3  1996  1980  2006
  3  1987  1996  2016
  3  2006  1980  1985
  3  1996  2006  2025
  3  1985  1980  1956
  3  2006  1985  2014
  3  2025  2006  2038
  3  1996  2025  2016
  3  2016  2025  2045
  3  2045  2025  2054
  3  2016  2045  2039
  3  1987  2016  2010
  3  2054  2025  2038
  3  2054  2038  2067
  3  2067  2038  2043
  3  2054  2067  2084
  3  2045  2054  2074
  3  2043  2038  2014
  3  2043  2014  2026
  3  2067  2043  2072
  3  2084  2067  2097
  3  2054  2084  2074
  3  2074  2084  2104
  3  2104  2084  2114
  3  2074  2104  2095
  3  2114  2084  2097
  3  2114  2097  2125
  3  2125  2097  2103
  3  2114  2125  2142
  3  2104  2114  2132
  3  2095  2104  2124
  3  2074  2095  2068
  3  2068  2095  2087
  3  2103  2097  2072
  3  2103  2072  2086
  3  2125  2103  2131
  3  2142  2125  2154
  3  2114  2142  2132
  3  2132  2142  2161
  3  2161  2142  2172
  3  2132  2161  2152
  3  2172  2142  2154
  3  2172  2154  2183
  3  2183  2154  2162
  3  2172  2183  2199
  3  2161  2172  2191
  3  2132  2152  2124
  3  2124  2152  2144
  3  2183  2162  2192
  3  2172  2199  2191
  3  2191  2199  2220
  3  2220  2199  2228
  3  2191  2220  2211
  3  2228  2199  2210
  3  2220  2228  2249
  3  2211  2220  2240
  3  2191  2211  2181
  3  2152  2161  2181
  3  2181  2161  2191
  3  2152  2181  2174
  3  2162  2154  2131
  3  2162  2131  2145
  3  2199  2183  2210
  3  2210  2183  2192
  3  2210  2192  2221
  3  1956  1980  1949
  3  1956  1949  1930
  3  1956  1930  1940
  3  2038  2006  2014
  3  2162  2145  2171
  3  2014  1985  1993
  3  2086  2072  2056
  3  1985  1956  1964
  3  2026  2014  1993
  3  2144  2152  2174
  3  2144  2174  2166
  3  2166  2174  2193
  3  2144  2166  2138
  3  1758  1739  1768
  3  2103  2086  2112
  3  2210  2221  2239
  3  2043  2026  2056
  3  2056  2026  2035
  3  2035  2026  2008
  3  2035  2008  2031
  3  2056  2035  2057
  3  2057  2035  2031
  3  2124  2144  2116
  3  2139  2147  2169
  3  1797  1823  1816
  3  1797  1816  1788
  3  1788  1816  1808
  3  1797  1788  1768
  3  1768  1788  1758
  3  1808  1816  1837
  3  1808  1837  1829
  3  1829  1837  1858
  3  1808  1829  1801
  3  1788  1808  1778
  3  1639  1608  1617
  3  1448  1417  1428
  3  2082  2051  2059
  3  2059  2051  2029
  3  2058  2027  2039
  3  2058  2039  2068
  3  2068  2039  2045
  3  2221  2192  2204
  3  2147  2117  2128
  3  2147  2128  2157
  3  2157  2128  2138
  3  2147  2157  2177
  3  2177  2157  2186
  3  2147  2177  2169
  3  2169  2177  2196
  3  2196  2177  2206
  3  2169  2196  2189
  3  2206  2177  2186
  3  2206  2186  2214
  3  2214  2186  2193
  3  2206  2214  2234
  3  2196  2206  2224
  3  2189  2196  2217
  3  2169  2189  2158
  3  1988  1998  2020
  3  1951  1955  1978
  3  1951  1978  1971
  3  1951  1971  1943
  3  1951  1943  1922
  3  1922  1943  1914
  3  1914  1943  1935
  3  1922  1914  1892
  3  1914  1935  1905
  3  1905  1935  1927
  3  1914  1905  1886
  3  1905  1927  1900
  3  1892  1914  1886
  3  1922  1892  1901
  3  1900  1927  1924
  3  1905  1900  1877
  3  1892  1886  1866
  3  1886  1905  1877
  3  2145  2131  2112
  3  2112  2131  2103
  3  2145  2112  2118
  3  2143  2134  2113
  3  2113  2134  2105
  3  2078  2087  2107
  3  2107  2087  2116
  3  2116  2087  2095
  3  1802  1797  1775
  3  1775  1797  1768
  3  1729  1758  1750
  3  1750  1758  1778
  3  1778  1758  1788
  3  1991  1963  1971
  3  1971  1963  1943
  3  1991  1971  1999
  3  1907  1926  1901
  3  1901  1926  1922
  3  1907  1901  1880
  3  1666  1639  1655
  3  1666  1655  1694
  3  1389  1404  1378
  3  1981  1974  1952
  3  1384  1413  1411
  3  1924  1927  1952
  3  1952  1927  1957
  3  1924  1952  1946
  3  1952  1957  1981
  3  1924  1946  1917
  3  1924  1917  1895
  3  1946  1952  1974
  3  1895  1917  1888
  3  1924  1895  1900
  3  1900  1895  1872
  3  1872  1895  1867
  3  1900  1872  1877
  3  1877  1872  1851
  3  1851  1872  1845
  3  1877  1851  1858
  3  1858  1851  1829
  3  1829  1851  1822
  3  1877  1858  1886
  3  1822  1851  1845
  3  1829  1822  1801
  3  1886  1858  1866
  3  1822  1845  1818
  3  1801  1822  1795
  3  1818  1845  1841
  3  1822  1818  1795
  3  1795  1818  1791
  3  1791  1818  1812
  3  1795  1791  1764
  3  1867  1895  1888
  3  1867  1888  1860
  3  1860  1888  1884
  3  1867  1860  1841
  3  1841  1860  1831
  3  1867  1841  1845
  3  1831  1860  1842
  3  1831  1842  1813
  3  1841  1831  1812
  3  1867  1845  1872
  3  1813  1842  1835
  3  1831  1813  1812
  3  1818  1841  1812
  3  1801  1795  1773
  3  1884  1888  1912
  3  1884  1912  1906
  3  1884  1906  1871
  3  1860  1884  1842
  3  1888  1917  1912
  3  1912  1917  1941
  3  1912  1941  1933
  3  1791  1812  1785
  3  1773  1795  1764
  3  2011  1988  2020
  3  2124  2104  2132
  3  2205  2238  2233
  3  1545  1550  1570
  3  2184  2155  2158
  3  2158  2155  2129
  3  2158  2129  2139
  3  2158  2139  2169
  3  1931  1953  1923
  3  1702  1682  1710
  3  2155  2173  2143
  3  2164  2168  2195
  3  1673  1678  1698
  3  1673  1698  1691
  3  1691  1698  1718
  3  1691  1718  1711
  3  1995  1984  1966
  3  1966  1984  1955
  3  1846  1874  1866
  3  1846  1866  1837
  3  1866  1874  1892
  3  1837  1866  1858
  3  1892  1874  1901
  3  2213  2184  2189
  3  2189  2184  2158
  3  1756  1727  1740
  3  1740  1727  1717
  3  1756  1740  1760
  3  1570  1578  1596
  3  1570  1596  1589
  3  1570  1589  1560
  3  1560  1589  1579
  3  1570  1560  1545
  3  1545  1560  1532
  3  1532  1560  1555
  3  1545  1532  1516
  3  1555  1560  1579
  3  1555  1579  1573
  3  1573  1579  1606
  3  1555  1573  1546
  3  1532  1555  1526
  3  1545  1516  1522
  3  1522  1516  1493
  3  1493  1516  1488
  3  1522  1493  1501
  3  1501  1493  1469
  3  1555  1546  1526
  3  1526  1546  1519
  3  1519  1546  1540
  3  1526  1519  1496
  3  1488  1516  1510
  3  1493  1488  1463
  3  1540  1546  1568
  3  1496  1519  1489
  3  1516  1532  1510
  3  1510  1532  1526
  3  1510  1526  1496
  3  1510  1496  1481
  3  1546  1573  1568
  3  1568  1573  1601
  3  1519  1540  1511
  3  1481  1496  1466
  3  1510  1481  1488
  3  1488  1481  1457
  3  1457  1481  1452
  3  1488  1457  1463
  3  1463  1457  1434
  3  1452  1481  1466
  3  1452  1466  1443
  3  1434  1457  1431
  3  1463  1434  1445
  3  1443  1466  1462
  3  1452  1443  1431
  3  1452  1431  1457
  3  1462  1466  1489
  3  1462  1489  1483
  3  1483  1489  1511
  3  1462  1483  1453
  3  1443  1462  1436
  3  1434  1431  1408
  3  1445  1434  1411
  3  1463  1445  1469
  3  1469  1445  1441
  3  1463  1469  1493
  3  1445  1411  1441
  3  1411  1413  1441
  3  1453  1483  1473
  3  1462  1453  1436
  3  1436  1453  1429
  3  1429  1453  1456
  3  1436  1429  1407
  3  1456  1453  1473
  3  1456  1486  1477
  3  1429  1456  1424
  3  1407  1429  1401
  3  1436  1407  1420
  3  1496  1489  1466
  3  1408  1431  1406
  3  1473  1483  1503
  3  1407  1401  1380
  3  1540  1568  1563
  3  1424  1456  1446
  3  1429  1424  1401
  3  1436  1420  1443
  3  1443  1420  1431
  3  1489  1519  1511
  3  1434  1408  1411
  3  1420  1407  1394
  3  1511  1540  1535
  3  1579  1589  1610
  3  1679  1706  1700
  3  2228  2210  2239
  3  2228  2239  2257
  3  2257  2239  2268
  3  2228  2257  2249
  3  2249  2257  2278
  3  2278  2257  2287
  3  2249  2278  2269
  3  2268  2239  2248
  3  2287  2257  2268
  3  2287  2268  2297
  3  2297  2268  2276
  3  2287  2297  2315
  3  2269  2278  2298
  3  2278  2287  2308
  3  2249  2269  2240
  3  2248  2239  2221
  3  2248  2221  2231
  3  2231  2221  2204
  3  2248  2231  2260
  3  2231  2204  2218
  3  2218  2204  2179
  3  2231  2218  2245
  3  2260  2231  2245
  3  2260  2245  2273
  3  2273  2245  2265
  3  2260  2273  2290
  3  2248  2260  2276
  3  2276  2260  2290
  3  2276  2290  2307
  3  2307  2290  2319
  3  2276  2307  2297
  3  2297  2307  2327
  3  2327  2307  2337
  3  2297  2327  2315
  3  2315  2327  2346
  3  2346  2327  2356
  3  2315  2346  2334
  3  2248  2276  2268
  3  2337  2307  2319
  3  2337  2319  2348
  3  2348  2319  2323
  3  2337  2348  2367
  3  2327  2337  2356
  3  2356  2337  2367
  3  2356  2367  2386
  3  2386  2367  2398
  3  2356  2386  2372
  3  2334  2346  2364
  3  2367  2348  2379
  3  2372  2386  2402
  3  2323  2319  2301
  3  2398  2367  2379
  3  2398  2379  2410
  3  2410  2379  2391
  3  2398  2410  2429
  3  2346  2356  2372
  3  2346  2372  2364
  3  2364  2372  2395
  3  2395  2372  2402
  3  2395  2402  2425
  3  2364  2395  2387
  3  2425  2402  2431
  3  2395  2425  2413
  3  2431  2402  2411
  3  2425  2431  2456
  3  2413  2425  2443
  3  2395  2413  2387
  3  2387  2413  2404
  3  2404  2413  2433
  3  2387  2404  2374
  3  2433  2413  2443
  3  2433  2443  2462
  3  2462  2443  2471
  3  2433  2462  2454
  3  2404  2433  2427
  3  2374  2404  2392
  3  2387  2374  2357
  3  2471  2443  2456
  3  2471  2456  2485
  3  2462  2471  2493
  3  2454  2462  2483
  3  2433  2454  2427
  3  2427  2454  2444
  3  2444  2454  2472
  3  2427  2444  2415
  3  2472  2454  2483
  3  2472  2483  2501
  3  2501  2483  2512
  3  2472  2501  2491
  3  2444  2472  2466
  3  2415  2444  2432
  3  2427  2415  2392
  3  2392  2415  2383
  3  2512  2483  2493
  3  2512  2493  2523
  3  2501  2512  2531
  3  2491  2501  2522
  3  2472  2491  2466
  3  2466  2491  2486
  3  2486  2491  2515
  3  2466  2486  2457
  3  2348  2323  2359
  3  2315  2334  2308
  3  2308  2334  2325
  3  2315  2308  2287
  3  2325  2334  2357
  3  2308  2325  2298
  3  2357  2334  2364
  3  2357  2364  2387
  3  2298  2325  2317
  3  2317  2325  2347
  3  2298  2317  2288
  3  2386  2398  2411
  3  2386  2411  2402
  3  2411  2398  2429
  3  2515  2491  2522
  3  2515  2522  2543
  3  2543  2522  2553
  3  2515  2543  2533
  3  2486  2515  2506
  3  2466  2457  2432
  3  2432  2457  2426
  3  2543  2553  2572
  3  2515  2533  2506
  3  2506  2533  2525
  3  2525  2533  2555
  3  2506  2525  2497
  3  2457  2486  2474
  3  2553  2522  2531
  3  2553  2531  2563
  3  2533  2543  2566
  3  2245  2218  2236
  3  2245  2236  2265
  3  2523  2493  2503
  3  2432  2426  2403
  3  2506  2497  2474
  3  2474  2497  2468
  3  2429  2410  2434
  3  2443  2425  2456
  3  2298  2288  2269
  3  2269  2288  2259
  3  2391  2379  2359
  3  2485  2456  2467
  3  2317  2347  2339
  3  2553  2563  2584
  3  2456  2431  2467
  3  2383  2415  2403
  3  2383  2403  2373
  3  2373  2403  2394
  3  2383  2373  2353
  3  2525  2555  2549
  3  2319  2290  2301
  3  2301  2290  2273
  3  2301  2273  2293
  3  2431  2411  2442
  3  2512  2523  2542
  3  2563  2531  2542
  3  2542  2531  2512
  3  2563  2542  2571
  3  2571  2542  2552
  3  2563  2571  2595
  3  2471  2485  2503
  3  2503  2485  2514
  3  2514  2485  2494
  3  2503  2514  2536
  3  2426  2457  2447
  3  2555  2533  2566
  3  2555  2566  2585
  3  2585  2566  2597
  3  2555  2585  2578
  3  2597  2566  2572
  3  2597  2572  2604
  3  2585  2597  2618
  3  2578  2585  2607
  3  2555  2578  2549
  3  2549  2578  2570
  3  2570  2578  2601
  3  2549  2570  2540
  3  2601  2578  2607
  3  2601  2607  2638
  3  2638  2607  2637
  3  2601  2645  2617
  3  2570  2601  2586
  3  2540  2570  2560
  3  2549  2540  2518
  3  2410  2391  2422
  3  2392  2383  2362
  3  2288  2317  2309
  3  2347  2325  2357
  3  2497  2525  2518
  3  2518  2525  2549
  3  2497  2518  2488
  3  2522  2501  2531
  3  2552  2542  2523
  3  2552  2523  2536
  3  2552  2536  2567
  3  2567  2536  2551
  3  2552  2567  2582
  3  2571  2552  2582
  3  2571  2582  2600
  3  2600  2582  2612
  3  2571  2600  2595
  3  2595  2600  2624
  3  2612  2582  2589
  3  2600  2612  2632
  3  2624  2600  2632
  3  2595  2624  2614
  3  2624  2632  2653
  3  2653  2632  2662
  3  2624  2653  2647
  3  2614  2624  2647
  3  2595  2614  2584
  3  2584  2614  2604
  3  2604  2614  2633
  3  2584  2604  2572
  3  2633  2614  2647
  3  2633  2647  2663
  3  2604  2633  2629
  3  2584  2572  2553
  3  2663  2647  2676
  3  2633  2663  2654
  3  2676  2647  2653
  3  2676  2653  2681
  3  2681  2653  2662
  3  2676  2681  2705
  3  2681  2662  2692
  3  2663  2676  2694
  3  2654  2663  2683
  3  2633  2654  2629
  3  2629  2654  2649
  3  2649  2654  2680
  3  2629  2649  2618
  3  2618  2649  2637
  3  2680  2654  2683
  3  2680  2683  2707
  3  2707  2683  2714
  3  2680  2707  2695
  3  2649  2680  2669
  3  2707  2714  2736
  3  2680  2695  2669
  3  2669  2695  2689
  3  2689  2695  2721
  3  2669  2689  2664
  3  2714  2683  2694
  3  2714  2694  2723
  3  2723  2694  2705
  3  2705  2694  2676
  3  2714  2723  2745
  3  2695  2707  2725
  3  2662  2632  2643
  3  2681  2692  2712
  3  2664  2697  2671
  3  2692  2662  2675
  3  2618  2637  2607
  3  2669  2664  2637
  3  2637  2664  2638
  3  2638  2664  2671
  3  2589  2582  2567
  3  2589  2567  2573
  3  2573  2567  2551
  3  2573  2551  2559
  3  2589  2573  2605
  3  2559  2551  2528
  3  2573  2559  2592
  3  2605  2573  2592
  3  2589  2605  2619
  3  2605  2592  2622
  3  2622  2592  2606
  3  2605  2622  2635
  3  2528  2551  2514
  3  2559  2528  2541
  3  2592  2559  2577
  3  2606  2592  2577
  3  2606  2577  2593
  3  2593  2577  2557
  3  2606  2593  2623
  3  2622  2606  2636
  3  2635  2622  2651
  3  2605  2635  2619
  3  2619  2635  2643
  3  2619  2643  2612
  3  2619  2612  2589
  3  2612  2643  2632
  3  2577  2559  2541
  3  2606  2623  2636
  3  2636  2623  2652
  3  2652  2623  2639
  3  2636  2652  2668
  3  2604  2629  2597
  3  2541  2528  2511
  3  2593  2557  2574
  3  2557  2577  2541
  3  2705  2681  2712
  3  2623  2593  2608
  3  2551  2536  2514
  3  2714  2745  2736
  3  2736  2745  2767
  3  2767  2745  2776
  3  2736  2767  2757
  3  2776  2745  2752
  3  2767  2776  2797
  3  2757  2767  2788
  3  2736  2757  2725
  3  2725  2757  2756
  3  2622  2636  2651
  3  2752  2745  2723
  3  2752  2723  2735
  3  2735  2723  2705
  3  2752  2735  2766
  3  2735  2705  2712
  3  2766  2735  2746
  3  2752  2766  2784
  3  2788  2767  2797
  3  2746  2735  2712
  3  2766  2746  2777
  3  2379  2348  2359
  3  2457  2474  2447
  3  2447  2474  2468
  3  2447  2468  2436
  3  2436  2468  2458
  3  2447  2436  2418
  3  2458  2468  2488
  3  2488  2468  2497
  3  2436  2458  2428
  3  2410  2422  2434
  3  2418  2436  2407
  3  2404  2427  2392
  3  2483  2462  2493
  3  2429  2434  2459
  3  2374  2392  2362
  3  2486  2506  2474
  3  2323  2301  2293
  3  2493  2471  2503
  3  2752  2784  2776
  3  2776  2784  2805
  3  2805  2784  2815
  3  2776  2805  2797
  3  2797  2805  2827
  3  2827  2805  2834
  3  2797  2827  2817
  3  2815  2784  2795
  3  2805  2815  2834
  3  2834  2815  2845
  3  2845  2815  2824
  3  2834  2845  2868
  3  2827  2834  2858
  3  2795  2784  2766
  3  2795  2766  2777
  3  2795  2777  2807
  3  2807  2777  2790
  3  2795  2807  2824
  3  2824  2807  2836
  3  2795  2824  2815
  3  2836  2807  2818
  3  2824  2836  2856
  3  2818  2807  2790
  3  2818  2790  2800
  3  2800  2790  2768
  3  2818  2800  2829
  3  2836  2818  2850
  3  2856  2836  2870
  3  2824  2856  2845
  3  2845  2856  2876
  3  2876  2856  2887
  3  2845  2876  2868
  3  2868  2876  2900
  3  2900  2876  2907
  3  2868  2900  2896
  3  2887  2856  2870
  3  2887  2870  2901
  3  2901  2870  2880
  3  2887  2901  2917
  3  2876  2887  2907
  3  2907  2887  2917
  3  2907  2917  2940
  3  2940  2917  2950
  3  2907  2940  2926
  3  2950  2917  2928
  3  2940  2950  2972
  3  2926  2940  2957
  3  2907  2926  2900
  3  2900  2926  2929
  3  2768  2790  2760
  3  2917  2901  2928
  3  2928  2901  2910
  3  2910  2901  2880
  3  2928  2910  2943
  3  2910  2880  2888
  3  2829  2800  2810
  3  2880  2870  2850
  3  2880  2850  2861
  3  2861  2850  2829
  3  2829  2850  2818
  3  2861  2829  2841
  3  2880  2861  2888
  3  2888  2861  2872
  3  2872  2861  2841
  3  2888  2872  2903
  3  2800  2768  2778
  3  2943  2910  2924
  3  2928  2943  2959
  3  2903  2872  2885
  3  2888  2903  2924
  3  2924  2903  2934
  3  2934  2903  2914
  3  2924  2934  2956
  3  2790  2777  2760
  3  2760  2777  2746
  3  2760  2746  2726
  3  2726  2746  2712
  3  2760  2726  2740
  3  2910  2888  2924
  3  2740  2726  2709
  3  2841  2829  2810
  3  2841  2810  2822
  3  2822  2810  2791
  3  2841  2822  2852
  3  2791  2810  2778
  3  2791  2778  2763
  3  2822  2791  2802
  3  2852  2822  2833
  3  2841  2852  2872
  3  2872  2852  2885
  3  2763  2778  2747
  3  2791  2763  2773
  3  2760  2740  2768
  3  2768  2740  2747
  3  2747  2740  2719
  3  2858  2834  2868
  3  2858  2868  2896
  3  2870  2836  2850
  3  2709  2726  2692
  3  2950  2928  2959
  3  2950  2959  2982
  3  2982  2959  2991
  3  2950  2982  2972
  3  2972  2982  3003
  3  3003  2982  3012
  3  2972  3003  2997
  3  2991  2959  2973
  3  3012  2982  2991
  3  3012  2991  3027
  3  2997  3003  3029
  3  3029  3003  3034
  3  3034  3003  3012
  3  3034  3012  3042
  3  3029  3034  3060
  3  3042  3012  3027
  3  3042  3027  3056
  3  3034  3042  3067
  3  3056  3027  3033
  3  3042  3056  3076
  3  3067  3042  3076
  3  3034  3067  3060
  3  3060  3067  3098
  3  3067  3076  3096
  3  3096  3076  3115
  3  3067  3096  3098
  3  3096  3115  3129
  3  3033  3027  3002
  3  3056  3033  3065
  3  3076  3056  3089
  3  3029  3060  3058
  3  3058  3060  3085
  3  3027  2991  3002
  3  3002  2991  2973
  3  3002  2973  2985
  3  2985  2973  2956
  3  3002  2985  3015
  3  2956  2973  2943
  3  2985  2956  2969
  3  2943  2973  2959
  3  2969  2956  2934
  3  2985  2969  2999
  3  2969  2934  2946
  3  3015  2985  2999
  3  3002  3015  3033
  3  3033  3015  3045
  3  3045  3015  3025
  3  3033  3045  3065
  3  3065  3045  3077
  3  3025  3015  2999
  3  3025  2999  3007
  3  3077  3045  3052
  3  3065  3077  3095
  3  3007  2999  2976
  3  3025  3007  3052
  3  3025  3052  3045
  3  2976  2999  2969
  3  2976  2969  2946
  3  2976  2946  2968
  3  2968  2946  2930
  3  2976  2968  3007
  3  3077  3052  3086
  3  3095  3077  3109
  3  3065  3095  3089
  3  3089  3095  3120
  3  3120  3095  3125
  3  3089  3120  3115
  3  2930  2946  2914
  3  2968  2930  2949
  3  2946  2934  2914
  3  3086  3052  3061
  3  3077  3086  3109
  3  3095  3109  3125
  3  3125  3109  3139
  3  3139  3109  3117
  3  3125  3139  3166
  3  3117  3109  3086
  3  3139  3117  3148
  3  3166  3139  3171
  3  3125  3166  3147
  3  3120  3125  3147
  3  3120  3147  3149
  3  2949  2930  2916
  3  2968  2949  2984
  3  3139  3148  3171
  3  2778  2768  2747
  3  3089  3056  3065
  3  3166  3171  3194
  3  2802  2791  2773
  3  2802  2773  2782
  3  2782  2773  2750
  3  2802  2782  2816
  3  2750  2773  2739
  3  2782  2750  2765
  3  2816  2782  2798
  3  2802  2816  2833
  3  2833  2816  2847
  3  2847  2816  2828
  3  2833  2847  2865
  3  2828  2816  2798
  3  2828  2798  2808
  3  2808  2798  2779
  3  2828  2808  2842
  3  2779  2798  2765
  3  2779  2765  2748
  3  2808  2779  2792
  3  2828  2842  2859
  3  2779  2748  2764
  3  2842  2808  2823
  3  2748  2765  2734
  3  2847  2828  2859
  3  2847  2859  2879
  3  2879  2859  2891
  3  2847  2879  2865
  3  2865  2879  2899
  3  2899  2879  2916
  3  2865  2899  2885
  3  2891  2859  2871
  3  2879  2891  2916
  3  2833  2865  2852
  3  2810  2800  2778
  3  3148  3117  3126
  3  2827  2858  2849
  3  2940  2972  2957
  3  2972  2997  2957
  3  2668  2652  2684
  3  2822  2802  2833
  3  2357  2374  2347
  3  2347  2374  2362
  3  2347  2362  2339
  3  2339  2362  2353
  3  2339  2353  2320
  3  2353  2362  2383
  3  2320  2353  2344
  3  2339  2320  2309
  3  2309  2320  2295
  3  2295  2320  2318
  3  2309  2295  2279
  3  2318  2320  2344
  3  2318  2344  2336
  3  2336  2344  2365
  3  2318  2336  2306
  3  2295  2318  2289
  3  2279  2295  2266
  3  2309  2279  2288
  3  2288  2279  2259
  3  2259  2279  2250
  3  2250  2279  2266
  3  2250  2266  2241
  3  2259  2250  2229
  3  2241  2266  2262
  3  2250  2241  2223
  3  2262  2266  2289
  3  2241  2262  2234
  3  2223  2241  2214
  3  2250  2223  2229
  3  2229  2223  2202
  3  2262  2289  2280
  3  2202  2223  2193
  3  2229  2202  2211
  3  2280  2289  2306
  3  2306  2289  2318
  3  2262  2251  2234
  3  2211  2202  2181
  3  2280  2306  2304
  3  2304  2306  2338
  3  2280  2304  2274
  3  2365  2344  2373
  3  2365  2373  2394
  3  2365  2394  2377
  3  2377  2394  2418
  3  2365  2377  2336
  3  2418  2394  2426
  3  2418  2426  2447
  3  2306  2336  2338
  3  2338  2336  2377
  3  2193  2223  2214
  3  2344  2353  2373
  3  2259  2229  2240
  3  2259  2240  2269
  3  2295  2289  2266
  3  2274  2304  2294
  3  2304  2338  2333
  3  2280  2274  2251
  3  2202  2193  2174
  3  2181  2202  2174
  3  2359  2323  2324
  3  2563  2595  2584
  3  2432  2444  2466
  3  2663  2694  2683
  3  3076  3089  3115
  3  2725  2707  2736
  3  2914  2903  2885
  3  2914  2885  2899
  3  2914  2899  2930
  3  2874  2878  2849
  3  2874  2849  2858
  3  2874  2858  2896
  3  2874  2896  2905
  3  3889  3894  3866
  3  3889  3866  3861
  3  3889  3861  3883
  3  3883  3861  3849
  3  3889  3883  3910
  3  3849  3861  3826
  3  3883  3849  3874
  3  3910  3883  3909
  3  3889  3910  3917
  3  3917  3910  3937
  3  3570  3578  3542
  3  3570  3542  3534
  3  3534  3542  3506
  3  3570  3534  3564
  3  2721  2724  2697
  3  2721  2697  2689
  3  2689  2697  2664
  3  2671  2697  2693
  3  100  102  117
  3  3624  3637  3596
  3  3624  3596  3588
  3  3588  3596  3564
  3  3564  3596  3570
  3  3588  3564  3555
  3  3570  3596  3608
  3  3555  3564  3527
  3  3588  3555  3585
  3  3624  3588  3618
  3  3555  3527  3521
  3  3588  3585  3618
  3  3618  3585  3615
  3  3615  3585  3582
  3  3618  3615  3650
  3  3527  3564  3534
  3  3527  3534  3499
  3  3499  3534  3506
  3  3527  3499  3494
  3  3499  3506  3474
  3  3474  3506  3479
  3  3499  3474  3466
  3  3494  3499  3466
  3  3494  3466  3462
  3  3527  3494  3521
  3  3521  3494  3489
  3  3489  3494  3462
  3  3489  3462  3460
  3  3460  3462  3431
  3  3489  3460  3488
  3  3521  3489  3519
  3  3462  3466  3435
  3  3431  3462  3435
  3  3431  3435  3403
  3  3403  3435  3407
  3  3431  3403  3401
  3  3488  3460  3458
  3  3585  3555  3552
  3  3460  3431  3430
  3  3489  3488  3519
  3  3519  3488  3518
  3  3518  3488  3487
  3  3519  3518  3549
  3  3479  3506  3513
  3  3513  3506  3542
  3  3479  3513  3485
  3  3513  3542  3548
  3  3485  3513  3516
  3  3485  3516  3483
  3  3479  3485  3454
  3  3521  3519  3552
  3  3552  3519  3549
  3  3552  3549  3582
  3  3582  3549  3579
  3  3552  3582  3585
  3  3579  3549  3547
  3  3582  3579  3613
  3  3547  3549  3518
  3  3547  3518  3517
  3  3517  3518  3487
  3  3547  3517  3546
  3  3517  3487  3484
  3  3484  3487  3456
  3  3517  3484  3514
  3  3546  3517  3514
  3  3546  3514  3544
  3  3547  3546  3577
  3  3544  3514  3511
  3  3546  3544  3576
  3  3579  3547  3577
  3  3579  3577  3609
  3  3609  3577  3607
  3  3579  3609  3613
  3  3613  3609  3642
  3  3642  3609  3638
  3  3613  3642  3645
  3  3582  3613  3615
  3  3484  3456  3453
  3  3607  3577  3576
  3  3607  3576  3606
  3  3606  3576  3573
  3  3607  3606  3636
  3  3576  3577  3546
  3  3609  3607  3638
  3  3638  3607  3636
  3  3638  3636  3669
  3  3669  3636  3665
  3  3638  3669  3670
  3  3573  3576  3544
  3  3573  3544  3540
  3  3540  3544  3511
  3  3573  3540  3571
  3  3540  3511  3508
  3  3508  3511  3477
  3  3540  3508  3538
  3  3665  3636  3635
  3  3638  3670  3642
  3  3642  3670  3674
  3  3674  3670  3703
  3  3642  3674  3645
  3  3645  3674  3673
  3  3673  3674  3702
  3  3645  3673  3650
  3  3650  3673  3694
  3  3694  3673  3702
  3  3571  3540  3538
  3  3571  3538  3568
  3  3568  3538  3535
  3  3571  3568  3603
  3  3538  3508  3505
  3  3703  3670  3699
  3  3674  3703  3702
  3  3606  3573  3602
  3  3669  3665  3697
  3  3477  3511  3481
  3  3456  3487  3458
  3  3458  3487  3488
  3  3456  3458  3426
  3  3426  3458  3430
  3  3456  3426  3425
  3  3426  3430  3398
  3  3398  3430  3401
  3  3401  3430  3431
  3  3398  3401  3369
  3  3426  3398  3396
  3  3425  3426  3396
  3  3425  3396  3394
  3  3394  3396  3366
  3  3425  3394  3423
  3  3456  3425  3453
  3  3453  3425  3423
  3  3453  3423  3452
  3  3452  3423  3419
  3  3453  3452  3481
  3  3481  3452  3477
  3  3477  3452  3448
  3  3448  3452  3419
  3  3477  3448  3476
  3  3448  3419  3417
  3  3417  3419  3388
  3  3448  3417  3446
  3  3369  3401  3372
  3  3419  3423  3393
  3  3477  3476  3508
  3  3508  3476  3505
  3  3446  3417  3415
  3  3398  3369  3367
  3  3476  3448  3446
  3  3476  3446  3475
  3  3475  3446  3444
  3  3476  3475  3505
  3  3505  3475  3503
  3  3503  3475  3472
  3  3505  3503  3535
  3  3505  3535  3538
  3  3388  3419  3393
  3  3388  3393  3360
  3  3360  3393  3364
  3  3388  3360  3356
  3  3636  3606  3635
  3  3635  3606  3602
  3  3635  3602  3633
  3  3573  3571  3602
  3  3602  3571  3603
  3  3602  3603  3633
  3  3633  3603  3630
  3  3630  3603  3594
  3  3633  3630  3661
  3  3594  3603  3568
  3  3594  3568  3561
  3  3561  3568  3535
  3  3594  3561  3593
  3  3561  3535  3532
  3  3532  3535  3503
  3  3561  3532  3560
  3  3532  3503  3500
  3  3500  3503  3472
  3  3532  3500  3531
  3  3500  3472  3467
  3  3630  3594  3623
  3  3633  3661  3664
  3  3594  3593  3623
  3  3623  3593  3622
  3  3622  3593  3587
  3  3623  3622  3656
  3  3561  3560  3593
  3  3593  3560  3587
  3  3587  3560  3557
  3  3557  3560  3531
  3  3587  3557  3586
  3  3557  3531  3526
  3  3526  3531  3496
  3  3557  3526  3558
  3  3531  3560  3532
  3  3496  3531  3500
  3  3496  3500  3467
  3  3496  3467  3469
  3  3469  3467  3438
  3  3496  3469  3502
  3  3526  3496  3502
  3  3526  3502  3529
  3  3529  3502  3497
  3  3526  3529  3558
  3  3558  3529  3559
  3  3559  3529  3528
  3  3558  3559  3590
  3  3557  3558  3586
  3  3586  3558  3590
  3  3586  3590  3621
  3  3621  3590  3625
  3  3586  3621  3617
  3  3497  3502  3468
  3  3529  3497  3528
  3  3622  3587  3617
  3  3622  3617  3649
  3  3617  3587  3586
  3  3649  3617  3646
  3  3622  3649  3656
  3  3646  3617  3621
  3  3646  3621  3647
  3  3647  3621  3625
  3  3647  3625  3651
  3  3646  3647  3678
  3  3651  3625  3619
  3  3647  3651  3681
  3  3678  3647  3681
  3  3678  3681  3721
  3  3721  3681  3716
  3  3678  3721  3706
  3  3646  3678  3677
  3  3619  3625  3589
  3  3651  3619  3648
  3  3681  3651  3687
  3  3649  3646  3677
  3  3649  3677  3679
  3  3679  3677  3707
  3  3649  3679  3656
  3  3656  3679  3686
  3  3707  3677  3706
  3  3707  3706  3732
  3  3732  3706  3721
  3  3707  3732  3736
  3  3686  3679  3714
  3  3656  3686  3655
  3  3706  3677  3678
  3  3679  3707  3714
  3  3714  3707  3736
  3  3714  3736  3742
  3  3742  3736  3766
  3  3714  3742  3709
  3  3736  3732  3764
  3  3766  3736  3764
  3  3766  3764  3798
  3  3798  3764  3792
  3  3766  3798  3797
  3  3742  3766  3774
  3  3709  3742  3738
  3  3714  3709  3686
  3  3686  3709  3683
  3  3683  3709  3718
  3  3686  3683  3655
  3  3718  3709  3738
  3  3718  3738  3748
  3  3683  3718  3688
  3  3655  3683  3661
  3  3661  3683  3688
  3  3661  3688  3664
  3  3748  3738  3771
  3  3718  3748  3713
  3  3655  3661  3630
  3  3664  3688  3693
  3  3655  3630  3623
  3  3693  3688  3713
  3  3713  3688  3718
  3  3693  3713  3731
  3  3664  3693  3665
  3  3731  3713  3748
  3  3693  3731  3697
  3  3664  3665  3635
  3  3655  3623  3656
  3  3665  3693  3697
  3  3664  3635  3633
  3  3771  3738  3774
  3  3771  3774  3802
  3  3748  3771  3769
  3  3798  3792  3822
  3  3766  3797  3774
  3  3774  3797  3802
  3  3802  3797  3830
  3  3792  3764  3758
  3  3797  3798  3825
  3  3771  3802  3799
  3  3716  3681  3687
  3  3716  3687  3719
  3  3719  3687  3682
  3  3716  3719  3751
  3  3721  3716  3746
  3  3438  3467  3437
  3  3590  3559  3589
  3  3589  3559  3566
  3  3590  3589  3625
  3  3566  3559  3528
  3  3589  3595  3619
  3  3502  3469  3468
  3  3468  3469  3439
  3  3439  3469  3438
  3  3468  3439  3442
  3  3439  3438  3408
  3  3408  3438  3410
  3  3439  3408  3412
  3  3442  3439  3412
  3  3442  3412  3413
  3  3468  3442  3473
  3  3410  3438  3437
  3  3410  3437  3411
  3  3411  3437  3444
  3  3410  3411  3381
  3  3412  3408  3380
  3  3442  3413  3445
  3  3408  3410  3378
  3  3413  3412  3383
  3  3381  3411  3382
  3  3410  3381  3378
  3  3378  3381  3351
  3  3351  3381  3353
  3  3378  3351  3350
  3  3764  3732  3758
  3  3732  3721  3758
  3  3721  3746  3758
  3  3738  3742  3774
  3  3651  3648  3687
  3  3417  3388  3386
  3  3648  3619  3616
  3  3514  3484  3481
  3  3481  3484  3453
  3  3514  3481  3511
  3  3670  3669  3699
  3  3699  3669  3697
  3  3699  3697  3735
  3  3454  3485  3440
  3  3394  3366  3364
  3  3364  3366  3336
  3  3394  3364  3393
  3  3336  3366  3338
  3  3364  3336  3333
  3  3394  3393  3423
  3  3338  3366  3367
  3  3338  3367  3339
  3  3339  3367  3369
  3  3338  3339  3309
  3  3336  3338  3308
  3  3333  3336  3305
  3  3364  3333  3360
  3  3360  3333  3330
  3  3330  3333  3302
  3  3360  3330  3356
  3  3356  3330  3326
  3  3326  3330  3297
  3  3356  3326  3355
  3  3302  3333  3305
  3  3302  3305  3273
  3  3273  3305  3278
  3  3302  3273  3270
  3  3297  3330  3302
  3  3297  3302  3270
  3  3297  3270  3267
  3  3267  3270  3239
  3  3297  3267  3298
  3  3278  3305  3308
  3  3278  3308  3279
  3  3279  3308  3309
  3  3309  3308  3338
  3  3279  3309  3280
  3  3278  3279  3249
  3  3239  3270  3245
  3  3298  3267  3266
  3  3280  3309  3310
  3  3355  3326  3324
  3  3273  3278  3248
  3  3279  3280  3250
  3  3326  3297  3298
  3  3326  3298  3324
  3  3324  3298  3293
  3  3293  3298  3266
  3  3293  3266  3263
  3  3263  3266  3237
  3  3293  3263  3294
  3  3324  3293  3321
  3  3237  3266  3241
  3  3263  3237  3235
  3  3294  3263  3264
  3  3293  3294  3321
  3  3321  3294  3322
  3  3322  3294  3291
  3  3321  3322  3351
  3  3351  3322  3350
  3  3321  3351  3353
  3  3350  3322  3319
  3  3321  3353  3324
  3  3319  3322  3291
  3  3350  3319  3348
  3  3324  3353  3355
  3  3319  3291  3289
  3  3289  3291  3261
  3  3319  3289  3318
  3  3261  3291  3264
  3  3264  3291  3294
  3  3261  3264  3234
  3  3234  3264  3235
  3  3234  3235  3204
  3  3261  3234  3225
  3  3204  3235  3207
  3  3234  3204  3198
  3  3207  3235  3237
  3  3207  3237  3210
  3  3210  3237  3241
  3  3210  3241  3214
  3  3207  3210  3180
  3  3204  3207  3176
  3  3289  3261  3254
  3  3319  3318  3348
  3  3348  3318  3347
  3  3347  3318  3313
  3  3348  3347  3383
  3  3210  3214  3183
  3  3318  3289  3283
  3  3214  3241  3239
  3  3239  3241  3267
  3  3214  3239  3216
  3  3267  3241  3266
  3  3216  3239  3245
  3  3214  3216  3187
  3  3216  3245  3218
  3  3218  3245  3248
  3  3216  3218  3189
  3  3218  3248  3220
  3  3220  3248  3249
  3  3218  3220  3192
  3  3249  3248  3278
  3  3220  3249  3221
  3  3221  3249  3250
  3  3220  3221  3193
  3  3221  3250  3222
  3  3222  3250  3252
  3  3221  3222  3195
  3  3248  3245  3273
  3  3273  3245  3270
  3  3187  3216  3189
  3  3187  3189  3159
  3  3214  3187  3183
  3  3183  3187  3156
  3  3156  3187  3159
  3  3183  3156  3154
  3  3156  3159  3130
  3  3130  3159  3133
  3  3156  3130  3128
  3  3192  3220  3193
  3  3193  3221  3195
  3  3193  3195  3165
  3  3165  3195  3167
  3  3193  3165  3164
  3  3252  3250  3280
  3  3252  3280  3282
  3  3282  3280  3310
  3  3252  3282  3255
  3  3282  3310  3312
  3  3312  3310  3340
  3  3282  3312  3286
  3  3195  3222  3196
  3  3218  3192  3189
  3  3189  3192  3162
  3  3162  3192  3164
  3  3164  3192  3193
  3  3162  3164  3135
  3  3189  3162  3159
  3  3159  3162  3133
  3  3133  3162  3135
  3  3133  3135  3106
  3  3106  3135  3108
  3  3133  3106  3105
  3  3135  3164  3137
  3  3222  3252  3224
  3  3350  3348  3380
  3  3183  3154  3180
  3  3180  3154  3151
  3  3151  3154  3127
  3  3180  3151  3176
  3  3176  3151  3134
  3  3180  3176  3207
  3  3156  3128  3154
  3  3154  3128  3127
  3  3127  3128  3101
  3  3101  3128  3102
  3  3127  3101  3099
  3  3108  3135  3137
  3  3151  3127  3134
  3  3102  3128  3130
  3  3102  3130  3105
  3  3105  3130  3133
  3  3102  3105  3073
  3  3073  3105  3078
  3  3102  3073  3072
  3  3078  3105  3106
  3  3078  3106  3080
  3  3080  3106  3108
  3  3078  3080  3049
  3  3080  3108  3081
  3  3081  3108  3110
  3  3080  3081  3051
  3  3073  3078  3046
  3  3102  3072  3101
  3  3101  3072  3071
  3  3078  3049  3046
  3  3046  3049  3018
  3  3018  3049  3021
  3  3046  3018  3016
  3  3021  3049  3051
  3  3021  3051  3023
  3  3023  3051  3054
  3  3021  3023  2996
  3  3018  3021  2990
  3  3016  3018  2989
  3  3051  3049  3080
  3  3072  3073  3044
  3  3046  3016  3044
  3  3044  3016  3014
  3  3110  3108  3137
  3  3110  3137  3138
  3  3081  3110  3082
  3  3054  3051  3081
  3  3054  3081  3082
  3  3054  3082  3057
  3  3057  3082  3087
  3  3054  3057  3028
  3  2996  3023  2998
  3  3165  3167  3138
  3  3138  3167  3140
  3  3165  3138  3137
  3  3140  3167  3170
  3  3138  3140  3111
  3  3165  3137  3164
  3  3170  3167  3196
  3  3196  3167  3195
  3  3170  3196  3200
  3  3200  3196  3224
  3  3170  3200  3175
  3  3200  3224  3228
  3  3228  3224  3255
  3  3200  3228  3203
  3  3255  3224  3252
  3  3228  3255  3260
  3  3260  3255  3286
  3  3260  3286  3290
  3  3290  3286  3316
  3  3260  3290  3262
  3  3228  3260  3233
  3  3286  3255  3282
  3  3140  3170  3143
  3  3138  3111  3110
  3  3110  3111  3082
  3  3082  3111  3087
  3  3260  3262  3233
  3  3233  3262  3236
  3  3236  3262  3268
  3  3233  3236  3206
  3  3111  3140  3114
  3  3203  3228  3233
  3  3014  3016  2987
  3  3044  3014  3041
  3  3316  3286  3312
  3  3316  3312  3345
  3  3345  3312  3340
  3  3316  3345  3349
  3  3345  3340  3372
  3  3345  3372  3374
  3  3374  3372  3403
  3  3403  3372  3401
  3  3345  3374  3349
  3  3349  3374  3377
  3  3377  3374  3407
  3  3349  3377  3352
  3  3316  3349  3320
  3  3352  3377  3385
  3  3290  3316  3320
  3  3290  3320  3292
  3  3292  3320  3327
  3  3290  3292  3262
  3  3262  3292  3268
  3  3268  3292  3301
  3  3301  3292  3327
  3  3268  3301  3277
  3  3301  3327  3334
  3  3349  3352  3320
  3  3320  3352  3327
  3  3327  3352  3359
  3  3359  3352  3385
  3  3359  3385  3390
  3  3327  3359  3334
  3  3390  3385  3416
  3  3359  3390  3363
  3  3334  3359  3363
  3  3334  3363  3337
  3  3337  3363  3379
  3  3334  3337  3307
  3  3416  3385  3406
  3  3390  3416  3422
  3  3363  3390  3395
  3  3307  3337  3325
  3  3334  3307  3301
  3  3301  3307  3277
  3  3277  3307  3284
  3  3284  3307  3325
  3  3277  3284  3251
  3  3251  3284  3256
  3  3277  3251  3243
  3  3021  2996  2990
  3  2990  2996  2967
  3  2967  2996  2970
  3  2990  2967  2963
  3  2970  2996  2998
  3  2970  2998  2971
  3  2971  2998  3000
  3  2970  2971  2942
  3  2967  2970  2941
  3  2963  2967  2937
  3  2990  2963  2989
  3  2989  2963  2960
  3  3175  3200  3203
  3  3175  3203  3177
  3  3177  3203  3206
  3  3175  3177  3146
  3  3146  3177  3150
  3  3175  3146  3143
  3  3143  3146  3118
  3  3118  3146  3121
  3  3143  3118  3114
  3  3114  3118  3088
  3  3088  3118  3092
  3  3114  3088  3087
  3  3087  3088  3059
  3  3114  3087  3111
  3  3059  3088  3062
  3  3087  3059  3057
  3  3057  3059  3030
  3  3030  3059  3032
  3  3057  3030  3028
  3  3121  3146  3150
  3  3121  3150  3122
  3  3122  3150  3152
  3  3121  3122  3093
  3  3118  3121  3092
  3  3092  3121  3093
  3  3092  3093  3066
  3  3066  3093  3070
  3  3092  3066  3062
  3  3062  3066  3035
  3  3035  3066  3040
  3  3062  3035  3032
  3  3070  3093  3100
  3  3066  3070  3040
  3  3040  3070  3043
  3  3043  3070  3074
  3  3040  3043  3013
  3  3032  3035  3004
  3  3059  3062  3032
  3  3093  3122  3100
  3  3100  3122  3131
  3  3131  3122  3152
  3  3100  3131  3104
  3  3131  3152  3161
  3  3074  3070  3100
  3  3074  3100  3104
  3  3074  3104  3090
  3  3090  3104  3126
  3  3074  3090  3048
  3  3040  3013  3010
  3  3048  3090  3061
  3  3061  3090  3086
  3  3074  3048  3043
  3  3043  3048  3020
  3  3020  3048  3022
  3  3043  3020  3013
  3  3013  3020  2984
  3  3022  3048  3061
  3  3020  3022  2984
  3  3062  3088  3092
  3  3152  3150  3179
  3  3035  3040  3010
  3  3035  3010  3004
  3  3004  3010  2978
  3  2978  3010  2983
  3  3004  2978  2975
  3  3356  3355  3386
  3  3386  3355  3382
  3  3356  3386  3388
  3  3382  3355  3353
  3  3382  3353  3381
  3  3023  3054  3028
  3  3023  3028  2998
  3  2998  3028  3000
  3  3170  3175  3143
  3  3792  3758  3787
  3  3309  3339  3310
  3  3310  3339  3340
  3  3340  3339  3369
  3  3340  3369  3372
  3  2971  3000  2974
  3  3613  3645  3615
  3  3615  3645  3650
  3  3497  3468  3473
  3  3497  3473  3501
  3  3501  3473  3471
  3  3497  3501  3528
  3  3528  3501  3530
  3  3530  3501  3498
  3  3528  3530  3566
  3  3471  3473  3445
  3  3471  3445  3434
  3  3434  3445  3405
  3  3471  3434  3464
  3  3501  3471  3498
  3  3498  3471  3464
  3  3498  3464  3504
  3  3504  3464  3459
  3  3498  3504  3533
  3  3434  3405  3399
  3  3533  3504  3537
  3  3498  3533  3530
  3  3530  3533  3563
  3  3563  3533  3562
  3  3530  3563  3566
  3  3566  3563  3595
  3  3595  3563  3591
  3  3566  3595  3589
  3  3619  3595  3616
  3  3616  3595  3591
  3  3616  3591  3627
  3  3627  3591  3601
  3  3616  3627  3652
  3  3562  3533  3537
  3  3562  3537  3567
  3  3567  3537  3536
  3  3562  3567  3601
  3  3601  3567  3598
  3  3598  3567  3565
  3  3601  3598  3632
  3  3563  3562  3591
  3  3591  3562  3601
  3  3536  3537  3507
  3  3567  3536  3565
  3  3565  3536  3524
  3  3405  3445  3413
  3  3405  3413  3375
  3  3375  3413  3383
  3  3405  3375  3368
  3  3375  3383  3347
  3  3464  3434  3429
  3  3445  3473  3442
  3  3652  3627  3663
  3  3627  3601  3632
  3  3616  3652  3648
  3  3648  3652  3682
  3  3598  3565  3592
  3  3632  3598  3629
  3  3537  3504  3507
  3  3507  3504  3459
  3  3663  3627  3632
  3  3378  3350  3380
  3  3536  3507  3492
  3  3629  3598  3592
  3  3466  3474  3441
  3  3467  3472  3437
  3  3716  3751  3746
  3  3746  3751  3777
  3  3777  3751  3780
  3  3746  3777  3787
  3  3780  3751  3752
  3  3777  3780  3813
  3  3403  3407  3374
  3  3769  3771  3799
  3  3769  3799  3803
  3  3390  3422  3395
  3  3474  3479  3447
  3  3180  3210  3183
  3  3444  3446  3415
  3  3444  3415  3411
  3  2989  3018  2990
  3  3385  3377  3406
  3  3406  3377  3407
  3  3406  3407  3441
  3  3441  3407  3435
  3  3441  3435  3466
  3  3592  3565  3556
  3  3396  3398  3367
  3  3798  3822  3825
  3  3032  3004  3001
  3  3366  3396  3367
  3  3797  3825  3830
  3  3830  3825  3856
  3  3856  3825  3850
  3  3830  3856  3858
  3  3850  3825  3822
  3  3850  3822  3853
  3  3856  3850  3881
  3  3858  3856  3885
  3  3830  3858  3828
  3  3853  3822  3824
  3  3850  3853  3879
  3  3881  3850  3879
  3  3881  3879  3905
  3  3905  3879  3901
  3  3881  3905  3906
  3  3901  3879  3876
  3  3905  3901  3927
  3  3906  3905  3931
  3  3881  3906  3885
  3  3885  3906  3911
  3  3911  3906  3921
  3  3885  3911  3874
  3  3828  3858  3849
  3  3879  3853  3876
  3  3876  3853  3848
  3  3848  3853  3824
  3  3876  3848  3877
  3  3848  3824  3820
  3  3820  3824  3787
  3  3848  3820  3851
  3  3877  3848  3851
  3  3877  3851  3880
  3  3876  3877  3900
  3  3851  3820  3813
  3  3880  3851  3847
  3  3877  3880  3904
  3  3931  3905  3927
  3  3876  3900  3901
  3  3901  3900  3926
  3  3926  3900  3923
  3  3901  3926  3927
  3  3927  3926  3946
  3  3946  3926  3943
  3  3927  3946  3948
  3  3923  3900  3904
  3  3904  3900  3877
  3  3923  3904  3924
  3  3924  3904  3898
  3  3923  3924  3944
  3  3926  3923  3943
  3  3943  3923  3944
  3  3943  3944  3962
  3  3962  3944  3960
  3  3943  3962  3961
  3  3924  3898  3922
  3  3960  3944  3942
  3  3962  3960  3975
  3  3975  3960  3970
  3  3970  3960  3942
  3  3975  3970  3984
  3  3984  3970  3971
  3  3971  3970  3952
  3  3952  3970  3942
  3  3971  3952  3957
  3  3943  3961  3946
  3  3946  3961  3964
  3  3964  3961  3981
  3  3946  3964  3948
  3  3948  3964  3958
  3  3952  3942  3922
  3  3981  3961  3976
  3  3964  3981  3978
  3  3898  3904  3880
  3  3898  3880  3878
  3  3878  3880  3847
  3  3898  3878  3903
  3  3878  3847  3852
  3  3852  3847  3823
  3  3878  3852  3882
  3  3903  3878  3882
  3  3903  3882  3908
  3  3898  3903  3922
  3  3922  3903  3925
  3  3925  3903  3908
  3  3922  3925  3952
  3  3925  3908  3932
  3  3932  3908  3907
  3  3925  3932  3957
  3  3908  3882  3886
  3  3823  3847  3813
  3  3852  3823  3821
  3  3882  3852  3855
  3  3932  3907  3935
  3  3944  3924  3942
  3  3942  3924  3922
  3  3961  3962  3976
  3  3976  3962  3975
  3  3907  3908  3886
  3  3907  3886  3887
  3  3887  3886  3857
  3  3907  3887  3913
  3  3927  3948  3931
  3  3857  3886  3855
  3  3857  3855  3827
  3  3827  3855  3821
  3  3857  3827  3831
  3  3827  3821  3796
  3  3855  3886  3882
  3  3796  3821  3794
  3  3827  3796  3800
  3  3887  3857  3859
  3  3831  3827  3800
  3  3831  3800  3804
  3  3804  3800  3772
  3  3831  3804  3834
  3  3857  3831  3859
  3  3859  3831  3834
  3  3859  3834  3864
  3  3864  3834  3838
  3  3859  3864  3892
  3  3838  3834  3807
  3  3864  3838  3868
  3  3864  3868  3892
  3  3807  3834  3804
  3  3838  3807  3814
  3  3978  3981  3995
  3  3794  3821  3823
  3  3800  3796  3768
  3  3847  3851  3813
  3  3796  3794  3763
  3  3885  3856  3881
  3  3921  3906  3931
  3  3921  3931  3947
  3  3852  3821  3855
  3  3824  3822  3792
  3  3772  3800  3768
  3  3772  3768  3740
  3  3740  3768  3737
  3  3772  3740  3747
  3  3737  3768  3763
  3  3737  3763  3752
  3  3752  3763  3794
  3  3740  3737  3708
  3  3747  3740  3711
  3  3772  3747  3778
  3  3964  3978  3958
  3  3804  3772  3778
  3  3804  3778  3807
  3  3830  3828  3802
  3  3802  3828  3799
  3  3858  3885  3874
  3  3981  3976  3994
  3  3911  3921  3929
  3  3929  3921  3947
  3  3947  3931  3958
  3  3911  3929  3909
  3  3140  3143  3114
  3  3475  3444  3472
  3  3472  3444  3437
  3  3479  3454  3447
  3  3447  3454  3416
  3  3735  3697  3731
  3  3073  3046  3044
  3  3748  3769  3731
  3  3249  3279  3250
  3  2970  2942  2941
  3  2941  2942  2913
  3  2913  2942  2915
  3  2941  2913  2911
  3  2915  2942  2944
  3  2913  2915  2886
  3  2911  2913  2884
  3  2941  2911  2937
  3  2937  2911  2906
  3  2906  2911  2881
  3  2937  2906  2931
  3  1630  1606  1635
  3  1635  1606  1610
  3  1610  1606  1579
  3  3719  3682  3722
  3  3149  3157  3115
  3  3149  3115  3120
  3  3839  3846  3812
  3  3839  3812  3809
  3  3809  3812  3783
  3  3783  3812  3786
  3  3786  3812  3819
  3  3783  3786  3754
  3  3809  3783  3773
  3  3754  3786  3760
  3  3760  3786  3790
  3  3754  3760  3728
  3  3728  3760  3734
  3  3754  3728  3723
  3  3783  3754  3735
  3  3734  3760  3770
  3  3734  3770  3733
  3  3728  3734  3702
  3  3728  3702  3703
  3  3728  3703  3723
  3  3723  3703  3699
  3  3723  3699  3735
  3  3702  3734  3694
  3  3723  3735  3754
  3  3773  3783  3735
  3  3809  3773  3803
  3  2978  2983  2955
  3  3357  3365  3329
  3  3357  3329  3325
  3  3357  3325  3337
  3  3357  3337  3379
  3  3357  3379  3389
  3  1475  1451  1449
  3  1449  1451  1422
  3  2503  2536  2523
  3  2756  2755  2721
  3  2756  2721  2725
  3  3383  3412  3380
  3  3383  3380  3348
  3  3814  3845  3838
  3  3178  3181  3149
  3  3178  3149  3147
  3  1547  1536  1517
  3  768  754  739
  3  768  739  748
  3  748  739  718
  3  768  748  787
  3  1604  1597  1577
  3  2154  2125  2131
  3  1155  1140  1126
  3  115  103  99
  3  1710  1689  1719
  3  2637  2649  2669
  3  3251  3256  3223
  3  1056  1043  1027
  3  1056  1027  1038
  3  1056  1038  1068
  3  1068  1038  1048
  3  1056  1068  1085
  3  1085  1068  1096
  3  1056  1085  1070
  3  1096  1068  1077
  3  1085  1096  1126
  3  1077  1068  1048
  3  1077  1048  1063
  3  1063  1048  1034
  3  1077  1063  1092
  3  1096  1077  1107
  3  1048  1038  1020
  3  1063  1034  1045
  3  1077  1092  1107
  3  1107  1092  1120
  3  1120  1092  1102
  3  1107  1120  1135
  3  1034  1048  1020
  3  1034  1020  1004
  3  1004  1020  991
  3  1034  1004  1017
  3  1092  1063  1075
  3  1534  1524  1505
  3  1534  1505  1515
  3  1515  1505  1486
  3  1534  1515  1544
  3  1438  1459  1419
  3  2264  2261  2233
  3  1790  1763  1771
  3  1808  1801  1778
  3  1778  1801  1773
  3  2408  2405  2381
  3  2408  2381  2384
  3  2408  2384  2414
  3  2414  2384  2389
  3  2408  2414  2449
  3  2389  2384  2361
  3  2414  2389  2419
  3  2326  2321  2299
  3  2326  2299  2303
  3  2303  2299  2275
  3  2326  2303  2330
  3  2330  2303  2305
  3  2326  2330  2352
  3  2326  2352  2349
  3  2305  2303  2277
  3  2330  2305  2332
  3  2277  2303  2275
  3  2277  2275  2246
  3  2305  2277  2281
  3  2330  2332  2358
  3  2358  2332  2361
  3  2361  2332  2335
  3  2358  2361  2384
  3  2335  2332  2310
  3  2361  2335  2363
  3  2277  2246  2253
  3  2310  2332  2305
  3  2310  2305  2281
  3  2310  2281  2286
  3  2286  2281  2258
  3  2310  2286  2316
  3  2335  2310  2316
  3  2335  2316  2343
  3  2343  2316  2333
  3  2335  2343  2363
  3  2363  2343  2370
  3  2370  2343  2333
  3  2363  2370  2393
  3  2393  2370  2399
  3  2363  2393  2389
  3  2389  2393  2419
  3  2419  2393  2421
  3  2421  2393  2399
  3  2419  2421  2445
  3  2421  2399  2428
  3  2421  2428  2450
  3  2361  2363  2389
  3  2316  2286  2294
  3  2421  2450  2445
  3  2445  2450  2473
  3  2473  2450  2478
  3  2445  2473  2469
  3  2478  2450  2458
  3  2478  2458  2488
  3  2478  2488  2504
  3  2458  2450  2428
  3  2504  2488  2518
  3  2478  2504  2473
  3  2469  2509  2502
  3  2445  2469  2439
  3  2258  2281  2253
  3  2253  2281  2277
  3  2419  2445  2439
  3  2419  2439  2414
  3  2414  2439  2449
  3  2449  2439  2469
  3  2246  2275  2238
  3  2246  2238  2209
  3  2286  2258  2263
  3  2399  2370  2378
  3  2957  2961  2929
  3  2957  2929  2926
  3  3959  3973  3951
  3  3951  3973  3957
  3  2849  2844  2817
  3  2849  2817  2827
  3  1625  1646  1615
  3  3205  3208  3178
  3  3205  3178  3166
  3  2556  2558  2530
  3  2556  2530  2535
  3  2535  2530  2509
  3  2556  2535  2560
  3  2560  2535  2540
  3  2211  2240  2229
  3  1634  1631  1604
  3  1634  1604  1618
  3  1634  1618  1644
  3  1738  1742  1764
  3  1738  1764  1762
  3  1762  1764  1791
  3  1738  1762  1733
  3  1733  1762  1754
  3  968  959  938
  3  968  938  951
  3  951  938  921
  3  968  951  980
  3  980  951  962
  3  968  980  998
  3  968  998  989
  3  962  951  933
  3  980  962  991
  3  991  962  976
  3  980  991  1008
  3  976  962  946
  3  991  976  1004
  3  1008  991  1020
  3  1004  976  988
  3  988  976  960
  3  1004  988  1017
  3  1017  988  1001
  3  1008  1020  1038
  3  1001  988  971
  3  1017  1001  1030
  3  933  951  921
  3  933  921  905
  3  946  962  933
  3  946  933  916
  3  960  976  946
  3  960  946  931
  3  931  946  916
  3  931  916  901
  3  960  931  943
  3  901  916  888
  3  931  901  914
  3  905  921  893
  3  933  905  916
  3  916  905  888
  3  888  905  877
  3  877  905  893
  3  877  893  864
  3  888  877  857
  3  864  893  875
  3  864  875  842
  3  842  875  850
  3  864  842  839
  3  839  842  816
  3  864  839  877
  3  816  842  797
  3  839  816  814
  3  988  960  971
  3  971  960  943
  3  971  943  956
  3  956  943  927
  3  971  956  986
  3  901  888  870
  3  888  857  870
  3  870  857  843
  3  843  857  829
  3  870  843  855
  3  927  943  914
  3  914  943  931
  3  927  914  897
  3  897  914  883
  3  927  897  913
  3  883  914  901
  3  883  901  870
  3  883  870  855
  3  897  883  867
  3  913  897  882
  3  1030  1001  1015
  3  956  927  941
  3  927  913  941
  3  941  913  928
  3  928  913  898
  3  941  928  958
  3  1001  971  986
  3  1001  986  1015
  3  1015  986  1000
  3  1000  986  970
  3  1015  1000  1029
  3  1017  1030  1045
  3  1045  1030  1059
  3  1017  1045  1034
  3  1059  1030  1044
  3  1045  1059  1075
  3  1075  1059  1088
  3  1088  1059  1073
  3  1075  1088  1102
  3  1102  1088  1116
  3  1075  1102  1092
  3  1116  1088  1101
  3  1102  1116  1132
  3  1044  1030  1015
  3  1044  1015  1029
  3  1073  1059  1044
  3  1073  1044  1058
  3  1058  1044  1029
  3  1058  1029  1046
  3  1073  1058  1087
  3  1046  1029  1016
  3  1058  1046  1074
  3  1132  1116  1147
  3  1087  1058  1074
  3  1087  1074  1103
  3  1103  1074  1091
  3  1087  1103  1115
  3  1016  1029  1000
  3  1091  1074  1062
  3  1103  1091  1119
  3  1087  1115  1101
  3  1101  1115  1130
  3  1087  1101  1073
  3  1130  1115  1145
  3  1101  1130  1116
  3  1116  1130  1147
  3  1147  1130  1159
  3  1159  1130  1145
  3  1159  1145  1174
  3  1174  1145  1160
  3  1159  1174  1189
  3  1147  1159  1176
  3  1145  1115  1131
  3  1160  1145  1131
  3  1160  1131  1148
  3  1148  1131  1119
  3  1148  1119  1133
  3  1133  1119  1105
  3  1148  1133  1164
  3  1160  1148  1177
  3  1119  1131  1103
  3  1103  1131  1115
  3  1105  1119  1091
  3  1105  1091  1076
  3  1076  1091  1062
  3  1076  1062  1047
  3  1105  1076  1094
  3  1047  1062  1033
  3  1076  1047  1065
  3  1133  1105  1122
  3  1164  1133  1151
  3  1148  1164  1177
  3  1177  1164  1194
  3  1194  1164  1180
  3  1177  1194  1206
  3  1174  1160  1190
  3  1160  1177  1190
  3  1190  1177  1206
  3  1190  1206  1216
  3  1216  1206  1233
  3  1190  1216  1201
  3  1206  1194  1220
  3  1233  1206  1220
  3  1233  1220  1247
  3  1247  1220  1237
  3  1233  1247  1261
  3  1216  1233  1244
  3  1237  1220  1211
  3  1247  1237  1265
  3  1176  1159  1189
  3  1176  1189  1204
  3  1204  1189  1217
  3  1176  1204  1191
  3  1217  1189  1201
  3  1201  1189  1174
  3  1201  1174  1190
  3  1204  1217  1232
  3  1180  1164  1151
  3  1180  1151  1170
  3  1170  1151  1141
  3  1180  1170  1199
  3  1141  1151  1122
  3  1170  1141  1158
  3  1180  1199  1211
  3  1211  1199  1225
  3  1191  1204  1218
  3  1199  1170  1188
  3  1101  1088  1073
  3  1233  1261  1244
  3  1244  1261  1271
  3  1271  1261  1287
  3  1244  1271  1259
  3  1046  1016  1033
  3  1033  1016  1003
  3  1046  1033  1062
  3  1046  1062  1074
  3  1003  1016  987
  3  1033  1003  1019
  3  987  1016  1000
  3  1003  987  973
  3  1033  1019  1047
  3  1047  1019  1035
  3  1035  1019  1006
  3  1047  1035  1065
  3  1065  1035  1054
  3  1054  1035  1025
  3  1065  1054  1083
  3  1006  1019  990
  3  1035  1006  1025
  3  1025  1006  995
  3  1054  1025  1042
  3  1065  1083  1094
  3  1094  1083  1112
  3  1065  1094  1076
  3  1112  1083  1100
  3  1094  1112  1122
  3  1122  1112  1141
  3  1094  1122  1105
  3  1141  1112  1129
  3  1129  1112  1100
  3  1129  1100  1117
  3  1117  1100  1090
  3  1129  1117  1146
  3  1141  1129  1158
  3  1090  1100  1072
  3  1117  1090  1108
  3  1146  1117  1136
  3  1129  1146  1158
  3  1158  1146  1175
  3  1175  1146  1165
  3  1158  1175  1188
  3  995  1006  977
  3  1100  1083  1072
  3  1072  1083  1054
  3  1072  1054  1042
  3  1175  1165  1195
  3  1019  1003  990
  3  990  1003  973
  3  990  973  961
  3  961  973  944
  3  990  961  977
  3  977  961  948
  3  948  961  932
  3  977  948  967
  3  932  961  944
  3  932  944  915
  3  915  944  928
  3  932  915  904
  3  948  932  919
  3  977  967  995
  3  995  967  985
  3  985  967  955
  3  995  985  1014
  3  932  904  919
  3  919  904  892
  3  892  904  874
  3  919  892  908
  3  955  967  936
  3  985  955  975
  3  995  1014  1025
  3  1025  1014  1042
  3  1042  1014  1031
  3  1031  1014  1002
  3  1042  1031  1061
  3  967  948  936
  3  936  948  919
  3  936  919  908
  3  936  908  929
  3  904  915  884
  3  1014  985  1002
  3  1002  985  975
  3  1002  975  994
  3  994  975  964
  3  1002  994  1023
  3  944  973  958
  3  908  892  880
  3  1002  1023  1031
  3  1031  1023  1052
  3  1052  1023  1041
  3  1031  1052  1061
  3  1061  1052  1080
  3  1080  1052  1069
  3  1061  1080  1090
  3  1090  1080  1108
  3  1061  1090  1072
  3  1108  1080  1098
  3  1098  1080  1069
  3  1108  1098  1127
  3  1098  1069  1089
  3  1041  1023  1013
  3  1052  1041  1069
  3  1069  1041  1060
  3  1060  1041  1032
  3  1069  1060  1089
  3  1089  1060  1079
  3  1127  1098  1118
  3  1098  1089  1118
  3  1089  1079  1109
  3  1108  1127  1136
  3  1136  1127  1156
  3  1156  1127  1144
  3  1136  1156  1165
  3  1165  1156  1186
  3  1136  1165  1146
  3  1186  1156  1173
  3  1165  1186  1195
  3  1195  1186  1213
  3  1213  1186  1202
  3  1195  1213  1221
  3  1079  1060  1051
  3  958  973  987
  3  958  987  970
  3  1013  1023  994
  3  1013  994  984
  3  984  994  964
  3  1013  984  1005
  3  984  964  957
  3  957  964  935
  3  984  957  979
  3  1005  984  979
  3  1005  979  999
  3  1013  1005  1032
  3  1032  1005  1026
  3  1013  1032  1041
  3  1026  1005  999
  3  1032  1026  1051
  3  1026  999  1010
  3  1051  1026  1055
  3  999  979  972
  3  935  964  947
  3  957  935  930
  3  979  957  950
  3  1060  1032  1051
  3  972  979  950
  3  972  950  945
  3  930  935  907
  3  945  950  922
  3  972  945  974
  3  874  904  884
  3  874  884  856
  3  856  884  868
  3  874  856  845
  3  868  884  898
  3  856  868  841
  3  874  845  863
  3  947  964  975
  3  947  975  955
  3  947  955  929
  3  929  955  936
  3  947  929  918
  3  918  929  900
  3  947  918  935
  3  935  918  907
  3  907  918  890
  3  890  918  900
  3  890  900  871
  3  871  900  880
  3  880  900  908
  3  871  880  851
  3  908  900  929
  3  851  880  863
  3  871  851  844
  3  851  863  834
  3  834  863  845
  3  834  845  817
  3  817  845  828
  3  834  817  804
  3  851  834  824
  3  890  871  861
  3  863  880  892
  3  863  892  874
  3  844  851  824
  3  871  844  861
  3  861  844  832
  3  832  844  815
  3  861  832  853
  3  828  845  856
  3  828  856  841
  3  828  841  813
  3  817  828  802
  3  834  804  824
  3  824  804  792
  3  792  804  775
  3  824  792  815
  3  815  792  786
  3  824  815  844
  3  786  792  765
  3  815  786  805
  3  828  813  802
  3  802  813  782
  3  782  813  799
  3  802  782  770
  3  799  813  827
  3  782  799  767
  3  770  782  753
  3  804  817  789
  3  813  841  827
  3  827  841  854
  3  854  841  868
  3  854  868  882
  3  827  854  840
  3  802  770  789
  3  789  770  758
  3  758  770  741
  3  789  758  775
  3  789  775  804
  3  907  890  879
  3  861  853  879
  3  879  853  873
  3  861  879  890
  3  873  853  846
  3  879  873  902
  3  846  853  826
  3  873  846  865
  3  902  873  894
  3  879  902  907
  3  907  902  930
  3  930  902  922
  3  792  775  765
  3  832  815  805
  3  832  805  826
  3  826  805  801
  3  832  826  853
  3  801  805  776
  3  826  801  819
  3  776  805  786
  3  776  786  757
  3  757  786  765
  3  776  757  747
  3  757  765  737
  3  737  765  745
  3  757  737  728
  3  801  776  769
  3  776  747  769
  3  769  747  740
  3  740  747  716
  3  769  740  761
  3  757  728  747
  3  747  728  716
  3  716  728  696
  3  696  728  709
  3  716  696  689
  3  740  716  712
  3  709  728  737
  3  709  737  715
  3  715  737  745
  3  709  715  687
  3  715  745  729
  3  729  745  758
  3  758  745  775
  3  729  758  741
  3  775  745  765
  3  729  741  711
  3  715  729  697
  3  711  741  723
  3  729  711  697
  3  697  711  680
  3  680  711  692
  3  697  680  669
  3  689  696  667
  3  687  715  697
  3  709  687  679
  3  697  669  687
  3  687  669  656
  3  656  669  638
  3  687  656  679
  3  679  656  649
  3  649  656  627
  3  679  649  667
  3  667  649  640
  3  679  667  696
  3  640  649  619
  3  667  640  661
  3  679  696  709
  3  619  649  627
  3  619  627  596
  3  596  627  607
  3  619  596  585
  3  640  619  606
  3  661  640  631
  3  667  661  689
  3  689  661  683
  3  683  661  654
  3  689  683  712
  3  712  683  707
  3  689  712  716
  3  707  683  678
  3  712  707  733
  3  596  607  574
  3  678  683  654
  3  707  678  701
  3  712  733  740
  3  740  733  761
  3  761  733  755
  3  755  733  724
  3  761  755  784
  3  724  733  707
  3  724  707  701
  3  724  701  726
  3  726  701  700
  3  724  726  752
  3  700  701  673
  3  726  700  725
  3  752  726  746
  3  724  752  755
  3  755  752  777
  3  777  752  773
  3  755  777  784
  3  784  777  806
  3  773  752  746
  3  773  746  762
  3  777  773  794
  3  806  777  794
  3  784  806  809
  3  762  746  725
  3  806  794  830
  3  809  806  835
  3  784  809  788
  3  794  773  795
  3  795  773  762
  3  835  806  830
  3  809  835  837
  3  784  788  761
  3  761  788  769
  3  769  788  801
  3  826  819  846
  3  846  819  837
  3  837  819  809
  3  846  837  865
  3  809  819  788
  3  680  692  664
  3  619  585  606
  3  606  585  576
  3  576  585  553
  3  606  576  600
  3  819  801  788
  3  692  711  723
  3  692  723  705
  3  705  723  736
  3  692  705  675
  3  585  596  562
  3  669  680  651
  3  607  627  638
  3  607  638  621
  3  621  638  651
  3  651  638  669
  3  621  651  634
  3  634  651  664
  3  621  634  601
  3  634  664  645
  3  607  621  588
  3  645  664  675
  3  675  664  692
  3  645  675  658
  3  634  645  614
  3  658  675  690
  3  645  658  628
  3  601  634  614
  3  601  614  580
  3  580  614  598
  3  601  580  568
  3  621  601  588
  3  588  601  568
  3  588  568  555
  3  555  568  534
  3  588  555  574
  3  574  555  542
  3  588  574  607
  3  542  555  518
  3  574  542  562
  3  562  542  531
  3  531  542  509
  3  562  531  553
  3  553  531  517
  3  562  553  585
  3  517  531  495
  3  553  517  545
  3  518  555  534
  3  518  534  500
  3  509  542  518
  3  509  518  484
  3  484  518  500
  3  509  484  474
  3  484  500  466
  3  545  517  512
  3  474  484  447
  3  495  531  509
  3  500  534  508
  3  517  495  485
  3  553  545  576
  3  576  545  570
  3  570  545  538
  3  576  570  600
  3  600  570  594
  3  594  570  561
  3  600  594  624
  3  538  545  512
  3  538  512  506
  3  506  512  477
  3  538  506  532
  3  570  538  561
  3  477  512  485
  3  477  485  449
  3  449  485  456
  3  477  449  440
  3  532  506  503
  3  561  538  532
  3  561  532  559
  3  559  532  526
  3  561  559  591
  3  509  474  495
  3  495  474  456
  3  506  477  471
  3  723  741  753
  3  753  741  770
  3  631  640  606
  3  705  736  720
  3  534  568  547
  3  840  854  867
  3  673  701  678
  3  568  580  547
  3  547  580  564
  3  564  580  598
  3  547  564  530
  3  564  598  578
  3  530  564  546
  3  547  530  508
  3  508  498  470
  3  547  508  534
  3  600  624  631
  3  631  624  654
  3  654  624  648
  3  631  654  661
  3  648  624  620
  3  654  648  678
  3  620  624  594
  3  620  594  591
  3  591  594  561
  3  620  591  616
  3  616  591  584
  3  620  616  644
  3  584  591  559
  3  584  559  556
  3  556  559  526
  3  556  526  525
  3  584  556  582
  3  525  526  491
  3  556  525  552
  3  616  584  611
  3  620  644  648
  3  648  644  673
  3  584  582  611
  3  611  582  609
  3  609  582  579
  3  611  609  637
  3  644  616  641
  3  582  556  552
  3  525  491  489
  3  579  582  552
  3  579  552  549
  3  549  552  522
  3  579  549  581
  3  611  637  641
  3  522  552  525
  3  522  525  489
  3  549  522  521
  3  581  549  554
  3  491  526  503
  3  503  526  532
  3  491  503  465
  3  465  503  471
  3  465  471  435
  3  491  465  460
  3  435  471  440
  3  440  471  477
  3  435  440  395
  3  465  435  427
  3  395  440  408
  3  435  395  390
  3  460  465  427
  3  460  427  423
  3  423  427  387
  3  460  423  459
  3  387  427  390
  3  387  390  361
  3  423  387  384
  3  460  459  489
  3  489  459  487
  3  487  459  457
  3  489  487  522
  3  522  487  521
  3  521  487  488
  3  387  361  358
  3  459  423  422
  3  361  390  352
  3  491  460  489
  3  390  395  352
  3  457  459  422
  3  457  422  424
  3  424  422  385
  3  457  424  463
  3  487  457  488
  3  488  457  463
  3  488  463  494
  3  494  463  464
  3  488  494  528
  3  385  422  384
  3  385  384  356
  3  424  385  377
  3  463  424  428
  3  464  463  428
  3  464  428  436
  3  436  428  391
  3  464  436  473
  3  356  384  358
  3  358  384  387
  3  356  358  326
  3  391  428  377
  3  436  391  397
  3  473  436  441
  3  356  326  324
  3  609  579  603
  3  427  435  390
  3  408  440  449
  3  408  449  403
  3  408  403  369
  3  494  464  501
  3  1221  1213  1239
  3  736  723  753
  3  598  614  628
  3  598  628  613
  3  613  628  643
  3  598  613  578
  3  578  613  597
  3  597  613  629
  3  578  597  563
  3  629  613  643
  3  629  643  659
  3  659  643  674
  3  629  659  646
  3  597  629  615
  3  578  563  546
  3  546  563  529
  3  659  674  691
  3  529  563  551
  3  551  563  586
  3  546  529  511
  3  563  597  586
  3  674  643  658
  3  646  659  677
  3  579  581  603
  3  603  581  610
  3  610  581  587
  3  603  610  632
  3  603  632  609
  3  629  646  615
  3  615  646  633
  3  633  646  665
  3  615  633  602
  3  656  638  627
  3  746  726  725
  3  464  473  501
  3  501  473  493
  3  493  473  441
  3  1176  1191  1161
  3  1156  1144  1173
  3  1202  1186  1173
  3  1202  1173  1198
  3  1198  1173  1167
  3  1202  1198  1222
  3  1167  1173  1144
  3  1198  1167  1192
  3  1222  1198  1228
  3  1202  1222  1229
  3  614  645  628
  3  1102  1132  1120
  3  1120  1132  1149
  3  1149  1132  1161
  3  1120  1149  1135
  3  1135  1149  1166
  3  1166  1149  1178
  3  1135  1166  1153
  3  1042  1061  1072
  3  725  700  699
  3  528  494  540
  3  857  877  839
  3  999  972  1010
  3  950  957  930
  3  658  690  674
  3  986  956  970
  3  970  956  941
  3  970  941  958
  3  395  408  369
  3  1147  1176  1161
  3  1147  1161  1132
  3  1261  1247  1274
  3  700  673  671
  3  675  705  690
  3  690  705  720
  3  690  720  703
  3  703  720  735
  3  690  703  674
  3  674  703  691
  3  735  720  750
  3  703  735  719
  3  1194  1180  1211
  3  1194  1211  1220
  3  1213  1202  1229
  3  1213  1229  1239
  3  1239  1229  1257
  3  1201  1216  1230
  3  1195  1221  1203
  3  827  840  811
  3  1144  1127  1118
  3  1144  1118  1137
  3  1137  1118  1109
  3  1144  1137  1167
  3  1167  1137  1162
  3  456  485  495
  3  606  600  631
  3  358  361  329
  3  488  528  521
  3  521  528  554
  3  554  528  567
  3  2039  2010  2016
  3  2983  3010  3013
  3  2983  3013  2984
  3  2195  2198  2164
  3  2712  2692  2726
  3  2530  2526  2502
  3  2530  2502  2509
  3  2509  2469  2473
  3  1776  1765  1747
  3  1776  1747  1754
  3  1776  1754  1785
  3  480  455  443
  3  480  443  461
  3  461  443  402
  3  2645  2640  2617
  3  2645  2601  2638
  3  2072  2043  2056
  3  3950  3955  3934
  3  3950  3934  3929
  3  3929  3934  3909
  3  1660  1649  1628
  3  231  243  264
  3  1743  1713  1727
  3  1727  1713  1694
  3  739  717  708
  3  3440  3451  3418
  3  3440  3418  3422
  3  3440  3422  3454
  3  2943  2924  2956
  3  2485  2467  2494
  3  2494  2467  2475
  3  2475  2467  2442
  3  2494  2475  2511
  3  2639  2623  2608
  3  2639  2608  2625
  3  2625  2608  2594
  3  2639  2625  2655
  3  2594  2608  2574
  3  2625  2594  2609
  3  2655  2625  2642
  3  2639  2655  2670
  3  2617  2616  2587
  3  2617  2587  2586
  3  2617  2586  2601
  3  2586  2587  2560
  3  3363  3395  3379
  3  68  69  82
  3  1632  1643  1662
  3  1663  1654  1634
  3  1663  1634  1644
  3  1783  1802  1775
  3  195  178  170
  3  1593  1621  1618
  3  2514  2494  2528
  3  3934  3937  3910
  3  1979  1987  2010
  3  3131  3161  3126
  3  3993  4008  4006
  3  938  923  910
  3  1404  1395  1378
  3  2220  2249  2240
  3  2166  2193  2186
  3  2587  2591  2556
  3  2587  2556  2560
  3  2652  2639  2670
  3  2652  2670  2684
  3  2684  2670  2701
  3  2701  2670  2685
  3  2684  2701  2718
  3  3196  3222  3224
  3  3418  3421  3379
  3  3418  3379  3395
  3  3418  3395  3422
  3  1558  1530  1542
  3  2989  2960  2987
  3  2987  2960  2958
  3  2989  2987  3016
  3  2958  2960  2939
  3  2958  2933  2948
  3  2958  2964  2986
  3  2958  2986  2987
  3  2987  2986  3014
  3  2939  2960  2931
  3  2931  2960  2963
  3  157  186  176
  3  663  650  630
  3  663  630  633
  3  3147  3166  3178
  3  2299  2291  2264
  3  2299  2264  2275
  3  2275  2264  2238
  3  1571  1600  1591
  3  4021  4025  4011
  3  137  125  115
  3  137  115  128
  3  128  115  109
  3  137  128  149
  3  1940  1913  1934
  3  3992  4000  3982
  3  3992  3982  3978
  3  3975  3996  3993
  3  630  618  592
  3  1873  1883  1902
  3  1421  1414  1396
  3  1421  1396  1403
  3  1403  1396  1377
  3  1421  1403  1424
  3  1424  1403  1401
  3  2502  2500  2481
  3  2502  2481  2469
  3  2469  2481  2449
  3  2192  2162  2171
  3  2192  2171  2204
  3  2204  2171  2179
  3  3694  3698  3667
  3  1396  1381  1369
  3  1331  1324  1303
  3  1331  1303  1312
  3  1331  1312  1342
  3  1342  1312  1322
  3  1331  1342  1369
  3  1322  1312  1295
  3  1342  1322  1351
  3  2817  2819  2794
  3  3277  3243  3268
  3  3913  3940  3935
  3  1775  1757  1783
  3  3263  3235  3264
  3  443  407  378
  3  3303  3299  3274
  3  3206  3236  3209
  3  1446  1442  1421
  3  1446  1421  1424
  3  2929  2932  2896
  3  2929  2896  2900
  3  3231  3232  3205
  3  3231  3205  3194
  3  221  209  195
  3  221  195  210
  3  210  195  182
  3  182  195  170
  3  182  170  149
  3  210  182  200
  3  200  182  174
  3  210  200  226
  3  210  226  239
  3  239  226  255
  3  239  255  269
  3  226  200  218
  3  218  200  193
  3  193  200  174
  3  193  174  169
  3  218  193  214
  3  226  218  248
  3  169  174  152
  3  193  169  189
  3  214  193  189
  3  218  214  241
  3  241  214  235
  3  235  214  208
  3  241  235  262
  3  262  235  259
  3  259  235  229
  3  262  259  288
  3  208  214  189
  3  208  189  184
  3  184  189  163
  3  208  184  204
  3  229  235  208
  3  229  208  204
  3  229  204  227
  3  227  204  203
  3  229  227  253
  3  163  189  169
  3  163  169  147
  3  203  204  181
  3  253  227  254
  3  147  169  152
  3  147  152  130
  3  288  259  283
  3  283  259  253
  3  253  259  229
  3  283  253  281
  3  281  253  254
  3  281  254  284
  3  283  281  311
  3  311  281  310
  3  284  254  258
  3  281  284  310
  3  310  284  313
  3  313  284  287
  3  310  313  352
  3  288  283  314
  3  311  310  339
  3  258  254  228
  3  284  258  287
  3  287  258  260
  3  260  258  232
  3  287  260  291
  3  313  287  329
  3  184  163  161
  3  163  147  141
  3  204  184  181
  3  181  184  161
  3  181  161  160
  3  160  161  139
  3  181  160  183
  3  262  288  294
  3  294  288  319
  3  319  288  314
  3  227  203  228
  3  228  203  207
  3  227  228  254
  3  207  203  183
  3  183  203  181
  3  228  207  232
  3  232  207  212
  3  228  232  258
  3  212  207  187
  3  232  212  240
  3  207  183  187
  3  187  183  162
  3  162  183  160
  3  162  160  140
  3  140  160  139
  3  140  139  121
  3  162  140  146
  3  121  139  122
  3  140  121  124
  3  187  162  167
  3  212  187  190
  3  162  146  167
  3  167  146  151
  3  151  146  129
  3  167  151  172
  3  140  124  146
  3  146  124  129
  3  129  124  110
  3  110  124  108
  3  129  110  114
  3  151  129  134
  3  108  124  121
  3  108  121  104
  3  104  121  122
  3  108  104  87
  3  104  122  106
  3  114  110  98
  3  106  122  126
  3  104  106  86
  3  232  240  260
  3  260  240  268
  3  268  240  244
  3  260  268  291
  3  291  268  299
  3  299  268  274
  3  291  299  326
  3  244  240  217
  3  268  244  274
  3  274  244  252
  3  252  244  223
  3  274  252  282
  3  299  274  306
  3  167  172  190
  3  190  172  198
  3  167  190  187
  3  198  172  180
  3  190  198  217
  3  190  217  212
  3  212  217  240
  3  180  172  158
  3  198  180  206
  3  217  198  223
  3  223  198  206
  3  223  206  237
  3  217  223  244
  3  237  206  219
  3  223  237  252
  3  252  237  266
  3  266  237  247
  3  252  266  282
  3  282  266  298
  3  298  266  275
  3  282  298  317
  3  247  237  219
  3  247  219  230
  3  230  219  201
  3  247  230  261
  3  275  266  247
  3  275  247  261
  3  275  261  293
  3  293  261  276
  3  275  293  308
  3  201  219  192
  3  276  261  246
  3  308  293  323
  3  317  298  328
  3  230  201  216
  3  298  275  308
  3  298  308  328
  3  328  308  342
  3  342  308  323
  3  342  323  360
  3  360  323  340
  3  342  360  374
  3  328  342  362
  3  340  323  307
  3  360  340  379
  3  374  360  392
  3  342  374  362
  3  362  374  397
  3  261  230  246
  3  246  230  216
  3  246  216  233
  3  282  317  306
  3  306  317  337
  3  282  306  274
  3  337  317  349
  3  306  337  324
  3  349  317  328
  3  349  328  362
  3  337  349  377
  3  293  276  307
  3  307  276  297
  3  293  307  323
  3  297  276  263
  3  307  297  327
  3  263  276  246
  3  297  263  285
  3  327  297  318
  3  307  327  340
  3  340  327  367
  3  367  327  353
  3  340  367  379
  3  379  367  414
  3  353  327  318
  3  353  318  335
  3  335  318  296
  3  353  335  386
  3  367  353  398
  3  219  206  192
  3  192  206  180
  3  192  180  166
  3  166  180  158
  3  192  166  177
  3  233  216  202
  3  177  166  154
  3  192  177  201
  3  201  177  191
  3  191  177  165
  3  201  191  216
  3  216  191  202
  3  165  177  154
  3  165  154  143
  3  143  154  132
  3  165  143  156
  3  202  191  176
  3  191  165  176
  3  176  165  156
  3  176  156  157
  3  157  135  136
  3  143  132  119
  3  132  154  145
  3  156  143  135
  3  119  132  112
  3  143  119  135
  3  145  154  166
  3  145  166  158
  3  145  158  134
  3  134  158  151
  3  151  158  172
  3  392  360  379
  3  246  233  263
  3  132  145  123
  3  122  139  141
  3  156  135  157
  3  136  135  117
  3  110  108  92
  3  129  114  134
  3  134  114  123
  3  134  123  145
  3  374  392  413
  3  3982  3986  3966
  3  3982  3966  3958
  3  3982  3958  3978
  3  2675  2662  2643
  3  1477  1472  1446
  3  1477  1446  1456
  3  2671  2665  2645
  3  2671  2645  2638
  3  2144  2138  2116
  3  2116  2138  2107
  3  1183  1172  1155
  3  1183  1155  1153
  3  1153  1155  1126
  3  1691  1685  1663
  3  1691  1663  1673
  3  1709  1733  1703
  3  4030  4034  4021
  3  4030  4021  4018
  3  4018  4021  4007
  3  4030  4018  4026
  3  3004  2975  3001
  3  797  785  768
  3  797  768  787
  3  797  787  816
  3  1596  1615  1589
  3  1505  1499  1477
  3  1505  1477  1486
  3  1486  1456  1473
  3  1486  1473  1503
  3  3029  3031  2997
  3  3416  3406  3447
  3  2097  2067  2072
  3  3380  3408  3378
  3  1276  1270  1249
  3  1276  1249  1260
  3  1260  1249  1231
  3  1231  1249  1224
  3  1231  1224  1205
  3  1260  1231  1240
  3  1205  1224  1183
  3  1231  1205  1208
  3  1240  1231  1208
  3  1240  1208  1218
  3  1260  1240  1268
  3  1208  1205  1187
  3  41  53  48
  3  2095  2124  2116
  3  2206  2234  2224
  3  2224  2234  2251
  3  2251  2262  2280
  3  3935  3951  3932
  3  81  76  99
  3  2636  2668  2651
  3  2394  2403  2426
  3  1827  1815  1800
  3  2635  2651  2667
  3  3161  3152  3184
  3  2543  2572  2566
  3  2128  2098  2107
  3  2415  2432  2403
  3  2695  2725  2721
  3  3422  3416  3454
  3  85  100  97
  3  3668  3624  3667
  3  1728  1719  1700
  3  2787  2756  2794
  3  1913  1883  1896
  3  3652  3663  3682
  3  1469  1479  1501
  3  3829  3814  3791
  3  1883  1853  1857
  3  385  356  359
  3  3204  3176  3168
  3  3243  3251  3219
  3  1470  1438  1451
  3  1561  1534  1577
  3  3236  3268  3243
  3  2441  2408  2449
  3  3751  3719  3752
  3  3752  3719  3722
  3  1871  1842  1884
  3  2992  2957  2997
  3  628  658  643
  3  2234  2214  2241
  3  326  358  329
  3  326  329  291
  3  3977  3957  3973
  3  2232  2195  2233
  3  1793  1776  1813
  3  3104  3131  3126
  3  2757  2788  2794
  3  2794  2788  2817
  3  1645  1665  1636
  3  3632  3629  3659
  3  215  231  202
  3  3483  3440  3485
  3  1388  1384  1365
  3  889  875  910
  3  3256  3284  3296
  3  3682  3687  3648
  3  3072  3044  3041
  3  2200  2213  2230
  3  1601  1593  1568
  3  442  470  479
  3  373  404  411
  3  411  404  447
  3  411  447  418
  3  3233  3206  3203
  3  3150  3177  3179
  3  3179  3177  3206
  3  3179  3206  3209
  3  171  157  142
  3  682  663  708
  3  1459  1482  1448
  3  2045  2074  2068
  3  150  137  170
  3  2138  2166  2157
  3  4014  3992  4011
  3  1606  1601  1573
  3  3733  3694  3734
  3  1356  1331  1369
  3  2942  2971  2944
  3  2944  2971  2974
  3  2944  2974  2945
  3  2945  2974  2975
  3  2975  2974  3001
  3  2945  2975  2947
  3  3001  2974  3000
  3  2947  2975  2978
  3  2945  2947  2919
  3  3001  3000  3030
  3  3030  3000  3028
  3  2919  2947  2922
  3  2945  2919  2918
  3  2944  2945  2918
  3  2944  2918  2915
  3  2915  2918  2889
  3  2889  2918  2894
  3  2915  2889  2886
  3  2886  2889  2860
  3  2894  2918  2919
  3  2894  2919  2897
  3  2897  2919  2922
  3  2897  2922  2898
  3  2894  2897  2869
  3  2898  2922  2927
  3  2897  2898  2871
  3  2871  2898  2891
  3  2891  2898  2927
  3  2869  2897  2871
  3  2894  2869  2867
  3  2927  2922  2955
  3  2927  2955  2954
  3  2889  2894  2867
  3  2889  2867  2860
  3  2860  2867  2835
  3  2835  2867  2869
  3  2860  2835  2830
  3  2886  2860  2857
  3  2830  2835  2806
  3  2860  2830  2857
  3  2954  2955  2983
  3  2927  2954  2916
  3  2886  2857  2884
  3  2830  2806  2801
  3  2922  2947  2955
  3  2806  2835  2812
  3  3892  3913  3887
  3  1748  1775  1768
  3  3030  3032  3001
  3  3265  3231  3274
  3  2692  2675  2709
  3  1209  1183  1224
  3  2422  2391  2401
  3  4042  4030  4039
  3  4039  4030  4026
  3  818  797  842
  3  1104  1085  1126
  3  449  456  403
  3  361  352  313
  3  1394  1407  1380
  3  2263  2258  2235
  3  719  735  749
  3  1268  1240  1250
  3  2235  2258  2230
  3  749  735  764
  3  1250  1240  1218
  3  764  735  750
  3  749  764  779
  3  779  764  793
  3  749  779  766
  3  793  764  780
  3  779  793  810
  3  766  779  798
  3  780  764  750
  3  810  793  825
  3  798  779  810
  3  766  798  787
  3  825  793  811
  3  810  825  843
  3  843  825  855
  3  466  431  418
  3  503  506  471
  3  719  749  738
  3  738  749  766
  3  719  738  706
  3  738  766  748
  3  706  738  718
  3  719  706  691
  3  691  706  677
  3  719  691  703
  3  677  706  693
  3  693  706  718
  3  693  718  708
  3  677  693  665
  3  677  665  646
  3  708  718  739
  3  28  27  18
  3  913  882  898
  3  898  882  868
  3  2609  2594  2579
  3  2579  2594  2561
  3  2609  2579  2596
  3  2561  2594  2574
  3  2561  2574  2544
  3  2544  2574  2557
  3  2561  2544  2529
  3  2529  2544  2513
  3  2561  2529  2546
  3  2579  2561  2546
  3  2579  2546  2565
  3  2565  2546  2532
  3  2579  2565  2596
  3  2596  2565  2581
  3  2532  2546  2517
  3  2565  2532  2545
  3  2609  2596  2627
  3  2546  2529  2517
  3  2517  2529  2499
  3  2499  2529  2513
  3  2499  2513  2484
  3  2517  2499  2487
  3  2484  2513  2498
  3  2499  2484  2470
  3  2487  2499  2470
  3  2487  2470  2460
  3  2498  2513  2527
  3  2470  2484  2455
  3  2460  2470  2438
  3  2517  2487  2489
  3  2484  2498  2459
  3  2487  2460  2489
  3  2532  2517  2489
  3  2627  2596  2613
  3  2498  2527  2511
  3  2613  2596  2581
  3  2627  2613  2646
  3  2646  2613  2611
  3  2627  2646  2658
  3  2658  2646  2678
  3  2627  2658  2642
  3  2678  2646  2661
  3  2658  2678  2690
  3  2661  2646  2611
  3  2678  2661  2691
  3  2690  2678  2706
  3  2691  2661  2674
  3  2678  2691  2706
  3  2706  2691  2722
  3  2722  2691  2708
  3  2706  2722  2737
  3  2708  2691  2674
  3  2722  2708  2738
  3  2737  2722  2751
  3  2738  2708  2731
  3  2722  2738  2751
  3  2737  2751  2769
  3  2751  2738  2772
  3  2769  2751  2806
  3  2737  2769  2749
  3  2772  2738  2759
  3  2751  2772  2806
  3  2749  2769  2780
  3  2737  2749  2720
  3  2759  2738  2731
  3  2759  2731  2761
  3  2759  2761  2785
  3  2785  2761  2793
  3  2785  2793  2813
  3  2759  2785  2772
  3  2813  2793  2821
  3  2785  2813  2801
  3  2813  2821  2843
  3  2843  2821  2851
  3  2813  2843  2839
  3  2839  2843  2884
  3  2813  2839  2801
  3  2780  2769  2812
  3  2749  2780  2764
  3  2749  2764  2733
  3  2733  2764  2748
  3  2749  2733  2720
  3  2720  2733  2699
  3  2699  2733  2717
  3  2720  2699  2690
  3  2690  2699  2672
  3  2672  2699  2685
  3  2690  2672  2658
  3  2658  2672  2642
  3  2642  2672  2655
  3  2717  2733  2748
  3  2699  2717  2685
  3  2685  2717  2701
  3  2720  2690  2706
  3  2720  2706  2737
  3  2513  2544  2527
  3  2527  2544  2557
  3  2460  2438  2417
  3  1396  1369  1377
  3  1377  1369  1342
  3  2470  2455  2438
  3  2438  2455  2422
  3  2438  2422  2401
  3  1408  1406  1385
  3  1385  1406  1379
  3  1408  1385  1390
  3  1379  1406  1394
  3  1385  1379  1361
  3  1390  1385  1366
  3  1361  1379  1357
  3  1385  1361  1366
  3  1390  1366  1370
  3  1357  1379  1394
  3  1366  1361  1340
  3  1370  1366  1344
  3  1390  1370  1411
  3  1366  1340  1344
  3  1370  1344  1350
  3  1344  1340  1318
  3  1350  1344  1323
  3  1318  1340  1313
  3  1344  1318  1323
  3  1313  1340  1337
  3  1323  1318  1297
  3  1337  1340  1361
  3  1313  1337  1310
  3  1297  1318  1287
  3  1297  1287  1274
  3  1297  1274  1291
  3  1291  1274  1265
  3  1297  1291  1323
  3  1291  1265  1281
  3  1274  1287  1261
  3  1281  1265  1253
  3  1291  1281  1308
  3  1253  1265  1237
  3  1281  1253  1269
  3  1308  1281  1298
  3  1291  1308  1323
  3  1337  1361  1357
  3  1310  1337  1333
  3  1269  1253  1243
  3  1308  1298  1326
  3  1333  1337  1357
  3  1310  1333  1304
  3  1243  1253  1225
  3  1326  1298  1317
  3  1304  1333  1327
  3  1317  1298  1290
  3  1326  1317  1346
  3  1327  1333  1353
  3  1304  1327  1301
  3  1290  1298  1269
  3  1346  1317  1338
  3  1353  1333  1357
  3  1301  1327  1325
  3  1338  1317  1309
  3  1346  1338  1364
  3  1353  1357  1394
  3  1325  1327  1352
  3  1309  1317  1290
  3  1364  1338  1355
  3  1352  1327  1353
  3  1325  1352  1351
  3  1309  1290  1282
  3  1355  1338  1328
  3  1352  1353  1380
  3  1282  1290  1264
  3  1309  1282  1299
  3  1328  1338  1309
  3  1264  1290  1269
  3  1282  1264  1256
  3  1299  1282  1272
  3  1256  1264  1236
  3  1282  1256  1272
  3  1299  1272  1294
  3  1236  1264  1243
  3  1272  1256  1239
  3  1294  1272  1257
  3  1299  1294  1320
  3  1320  1294  1314
  3  1299  1320  1328
  3  1314  1294  1286
  3  1320  1314  1341
  3  1328  1320  1348
  3  1299  1328  1309
  3  1286  1294  1257
  3  1341  1314  1335
  3  1348  1320  1341
  3  1335  1314  1305
  3  1341  1335  1360
  3  1348  1341  1367
  3  1305  1314  1286
  3  1335  1305  1339
  3  1335  1339  1360
  3  1367  1341  1360
  3  1305  1286  1283
  3  1367  1360  1386
  3  1386  1360  1368
  3  1367  1386  1392
  3  1392  1386  1412
  3  1367  1392  1373
  3  1412  1386  1405
  3  1392  1412  1419
  3  1373  1392  1399
  3  1405  1386  1393
  3  1412  1405  1451
  3  1419  1412  1438
  3  1370  1350  1384
  3  1370  1384  1411
  3  1318  1313  1287
  3  1313  1310  1271
  3  1408  1390  1411
  3  1350  1323  1329
  3  1329  1323  1308
  3  1329  1308  1326
  3  1350  1329  1365
  3  1350  1365  1384
  3  1310  1304  1284
  3  1284  1304  1280
  3  1310  1284  1271
  3  1280  1304  1301
  3  1284  1280  1258
  3  1280  1301  1277
  3  1258  1280  1254
  3  1284  1258  1259
  3  1259  1258  1230
  3  1277  1301  1295
  3  1280  1277  1254
  3  1254  1277  1250
  3  1258  1254  1232
  3  1232  1254  1250
  3  500  508  466
  3  1208  1178  1191
  3  1281  1269  1298
  3  2541  2511  2527
  3  1107  1135  1125
  3  1125  1135  1153
  3  1125  1153  1126
  3  1125  1126  1096
  3  1125  1096  1107
  3  68  82  84
  3  84  82  96
  3  68  84  78
  3  78  84  98
  3  96  82  97
  3  84  96  98
  3  98  96  114
  3  1326  1346  1354
  3  1354  1346  1378
  3  1326  1354  1329
  3  368  369  403
  3  3618  3650  3667
  3  3667  3650  3694
  3  720  736  750
  3  2968  2984  3007
  3  748  718  738
  3  106  126  109
  3  3796  3763  3768
  3  843  829  810
  3  424  377  428
  3  418  388  380
  3  3995  3981  3994
  3  3251  3223  3219
  3  725  699  727
  3  727  699  686
  3  3809  3803  3835
  3  3835  3803  3826
  3  3826  3803  3799
  3  3835  3826  3861
  3  782  767  753
  3  97  100  119
  3  36  28  41
  3  2739  2773  2763
  3  2739  2763  2728
  3  2728  2763  2747
  3  2739  2728  2710
  3  2728  2747  2719
  3  2719  2740  2709
  3  2719  2709  2667
  3  2728  2719  2698
  3  2710  2728  2698
  3  2710  2698  2668
  3  2739  2710  2718
  3  2718  2710  2684
  3  2698  2719  2667
  3  1000  970  987
  3  3209  3236  3243
  3  1768  1739  1748
  3  3787  3758  3746
  3  546  564  578
  3  1224  1242  1209
  3  2560  2570  2586
  3  1544  1515  1535
  3  1544  1535  1563
  3  551  516  529
  3  529  516  492
  3  492  516  499
  3  529  492  511
  3  511  492  479
  3  511  479  498
  3  479  492  452
  3  498  479  470
  3  498  508  530
  3  498  530  511
  3  499  516  535
  3  3305  3336  3308
  3  894  873  865
  3  296  272  303
  3  303  272  286
  3  303  286  338
  3  296  303  335
  3  2859  2842  2871
  3  2871  2842  2854
  3  2854  2842  2823
  3  2871  2854  2869
  3  2869  2854  2837
  3  2854  2823  2837
  3  2869  2837  2835
  3  2837  2823  2812
  3  2837  2812  2835
  3  1188  1170  1158
  3  2200  2230  2219
  3  2219  2230  2253
  3  2200  2219  2187
  3  2209  2219  2246
  3  2189  2217  2213
  3  2906  2881  2877
  3  637  609  660
  3  660  609  632
  3  3269  3303  3274
  3  3269  3274  3242
  3  3242  3274  3231
  3  3269  3242  3238
  3  3238  3242  3211
  3  3269  3238  3256
  3  3256  3238  3223
  3  3211  3242  3194
  3  3238  3211  3223
  3  2304  2333  2294
  3  385  359  377
  3  377  359  337
  3  337  359  324
  3  3883  3874  3909
  3  1136  1117  1108
  3  4007  4021  4011
  3  4007  4011  3995
  3  4007  3995  3994
  3  4007  3994  4006
  3  4006  3994  3993
  3  3995  4011  3992
  3  2407  2436  2428
  3  2794  2819  2787
  3  297  285  318
  3  1399  1389  1373
  3  391  377  349
  3  1328  1348  1355
  3  1355  1348  1373
  3  1373  1348  1367
  3  1355  1373  1389
  3  2585  2618  2607
  3  1075  1063  1045
  3  152  174  149
  3  152  149  128
  3  1785  1812  1813
  3  3460  3430  3458
  3  512  517  485
  3  2186  2157  2166
  3  2782  2765  2798
  3  1225  1199  1215
  3  1215  1199  1188
  3  1225  1215  1243
  3  1215  1188  1203
  3  1203  1188  1175
  3  1203  1175  1195
  3  233  202  231
  3  233  231  263
  3  1380  1401  1375
  3  1375  1401  1403
  3  1380  1375  1352
  3  1352  1375  1351
  3  3994  3976  3993
  3  441  436  397
  3  3849  3826  3828
  3  1151  1133  1122
  3  811  840  825
  3  2642  2625  2609
  3  3978  3995  3992
  3  1079  1051  1084
  3  339  310  352
  3  74  78  92
  3  92  78  98
  3  2668  2684  2710
  3  132  123  112
  3  1985  1964  1993
  3  3474  3447  3441
  3  641  637  666
  3  666  637  660
  3  641  666  671
  3  671  666  699
  3  1312  1285  1295
  3  1295  1285  1268
  3  1268  1285  1260
  3  1295  1268  1277
  3  2309  2317  2339
  3  708  717  682
  3  592  602  630
  3  2967  2941  2937
  3  447  484  466
  3  2823  2808  2792
  3  1244  1259  1230
  3  130  152  128
  3  130  128  109
  3  1791  1785  1762
  3  1230  1216  1244
  3  3632  3659  3663
  3  1535  1540  1563
  3  1604  1577  1587
  3  1587  1577  1544
  3  1604  1587  1618
  3  2428  2399  2407
  3  546  511  530
  3  410  452  429
  3  429  452  461
  3  3148  3126  3160
  3  3160  3126  3161
  3  3160  3161  3190
  3  3190  3161  3184
  3  3160  3190  3188
  3  3188  3190  3223
  3  3160  3188  3148
  3  1109  1079  1111
  3  89  73  86
  3  86  73  71
  3  89  86  106
  3  71  73  58
  3  671  673  644
  3  1351  1322  1325
  3  1325  1322  1295
  3  3780  3752  3794
  3  3667  3698  3668
  3  404  403  456
  3  814  816  787
  3  174  182  149
  3  2913  2886  2884
  3  616  611  641
  3  3829  3791  3811
  3  3811  3791  3779
  3  3829  3811  3840
  3  3840  3811  3806
  3  3779  3791  3759
  3  3811  3775  3806
  3  3759  3791  3781
  3  3779  3759  3743
  3  3781  3791  3814
  3  3759  3781  3750
  3  3743  3759  3725
  3  3779  3743  3741
  3  3759  3750  3725
  3  3743  3725  3684
  3  3725  3750  3710
  3  3710  3750  3729
  3  3725  3710  3691
  3  3729  3750  3778
  3  3691  3710  3676
  3  3725  3691  3684
  3  3676  3710  3695
  3  3691  3676  3653
  3  3695  3710  3729
  3  3676  3695  3660
  3  3695  3729  3711
  3  3660  3695  3659
  3  3750  3781  3778
  3  3676  3660  3639
  3  3639  3660  3629
  3  3676  3639  3653
  3  3747  3711  3729
  3  1204  1232  1218
  3  119  112  97
  3  97  112  96
  3  4018  4007  4006
  3  4018  4006  4008
  3  2750  2739  2718
  3  893  921  910
  3  893  910  875
  3  910  921  938
  3  397  391  362
  3  2274  2294  2263
  3  829  857  839
  3  1203  1221  1236
  3  1089  1109  1118
  3  2801  2806  2772
  3  2801  2772  2785
  3  1257  1229  1246
  3  1246  1229  1222
  3  1246  1222  1255
  3  1257  1246  1286
  3  287  291  329
  3  1392  1419  1399
  3  2086  2056  2057
  3  3777  3813  3787
  3  2518  2540  2504
  3  2378  2370  2333
  3  109  115  99
  3  109  99  89
  3  569  586  602
  3  3417  3386  3415
  3  378  402  443
  3  1271  1287  1313
  3  442  479  452
  3  1503  1483  1511
  3  1503  1511  1535
  3  2937  2931  2963
  3  1274  1247  1265
  3  3325  3296  3284
  3  2278  2308  2298
  3  3910  3909  3934
  3  977  1006  990
  3  793  780  811
  3  2459  2455  2484
  3  958  928  944
  3  3274  3299  3265
  3  1754  1725  1733
  3  82  69  85
  3  2196  2224  2217
  3  680  664  651
  3  2792  2779  2764
  3  2792  2764  2780
  3  2792  2780  2823
  3  299  306  324
  3  299  324  326
  3  3243  3219  3209
  3  2205  2233  2195
  3  2911  2884  2881
  3  2881  2884  2843
  3  2442  2411  2429
  3  2442  2429  2459
  3  2442  2459  2475
  3  2475  2459  2498
  3  1166  1178  1187
  3  1187  1178  1208
  3  1166  1187  1184
  3  1184  1187  1205
  3  1184  1205  1183
  3  1184  1183  1153
  3  1166  1184  1153
  3  1191  1178  1161
  3  2670  2655  2685
  3  2685  2655  2672
  3  341  339  369
  3  369  339  352
  3  945  922  917
  3  917  922  894
  3  894  922  902
  3  945  917  940
  3  413  392  453
  3  86  87  104
  3  2949  2916  2954
  3  2949  2954  2984
  3  1239  1257  1272
  3  163  141  161
  3  161  141  139
  3  2112  2086  2085
  3  3740  3708  3711
  3  554  549  521
  3  2449  2476  2441
  3  2593  2574  2608
  3  897  867  882
  3  1406  1431  1420
  3  474  447  404
  3  2401  2391  2371
  3  2371  2391  2359
  3  2371  2359  2324
  3  2401  2371  2385
  3  301  277  271
  3  2734  2765  2750
  3  884  915  898
  3  1563  1568  1593
  3  2978  2955  2947
  3  1388  1365  1354
  3  1420  1394  1406
  3  1577  1597  1561
  3  2286  2263  2294
  3  659  691  677
  3  3117  3086  3090
  3  3117  3090  3126
  3  837  835  860
  3  860  835  869
  3  837  860  865
  3  865  860  887
  3  865  887  894
  3  860  869  896
  3  860  896  887
  3  894  887  917
  3  3194  3171  3211
  3  1269  1243  1264
  3  1448  1428  1459
  3  3813  3780  3823
  3  329  361  313
  3  3552  3555  3521
  3  170  178  150
  3  1256  1236  1221
  3  2535  2509  2504
  3  789  817  802
  3  262  294  271
  3  3166  3194  3205
  3  839  814  829
  3  829  814  798
  3  798  814  787
  3  2251  2274  2247
  3  2247  2274  2263
  3  2251  2247  2224
  3  2224  2247  2217
  3  1364  1355  1389
  3  2455  2459  2434
  3  2455  2434  2422
  3  3061  3052  3007
  3  3659  3629  3660
  3  3152  3179  3184
  3  1534  1544  1577
  3  85  97  82
  3  3803  3773  3769
  3  3769  3773  3731
  3  264  296  285
  3  285  296  318
  3  264  285  263
  3  2931  2906  2912
  3  633  665  663
  3  3296  3269  3256
  3  99  103  81
  3  2667  2651  2698
  3  380  411  418
  3  2418  2407  2377
  3  928  898  915
  3  2635  2667  2643
  3  1417  1399  1428
  3  1428  1399  1419
  3  1428  1419  1459
  3  2609  2627  2642
  3  1725  1698  1703
  3  910  923  889
  3  562  596  574
  3  1211  1225  1237
  3  1237  1225  1253
  3  2233  2238  2264
  3  499  461  492
  3  827  811  799
  3  799  811  780
  3  1301  1325  1295
  3  922  950  930
  3  87  92  108
  3  2916  2930  2899
  3  141  147  126
  3  126  147  130
  3  141  126  122
  3  4011  4025  4014
  3  137  149  170
  3  3382  3411  3415
  3  1268  1250  1277
  3  767  799  780
  3  98  110  92
  3  1221  1239  1256
  3  2263  2235  2247
  3  1126  1140  1104
  3  2253  2246  2219
  3  3874  3849  3858
  3  76  89  99
  3  1342  1351  1377
  3  2171  2145  2149
  3  423  384  422
  3  2830  2801  2839
  3  2618  2597  2629
  3  798  810  829
  3  3778  3747  3729
  3  359  356  324
  3  867  883  855
  3  867  855  840
  3  374  413  397
  3  3624  3618  3667
  3  1201  1230  1217
  3  1217  1230  1258
  3  78  63  68
  3  1232  1217  1258
  3  1964  1956  1940
  3  1964  1940  1934
  3  2806  2812  2769
  3  2511  2528  2494
  3  2399  2378  2407
  3  1259  1271  1284
  3  1389  1378  1364
  3  1364  1378  1346
  3  3722  3682  3692
  3  3692  3682  3663
  3  3692  3663  3708
  3  3692  3708  3722
  3  494  501  540
  3  699  700  671
  3  3752  3722  3737
  3  3737  3722  3708
  3  2333  2338  2378
  3  2378  2338  2377
  3  644  641  671
  3  1515  1486  1503
  3  1515  1503  1535
  3  1378  1395  1354
  3  3792  3787  3824
  3  1191  1218  1208
  3  2230  2213  2235
  3  2235  2213  2217
  3  2431  2442  2467
  3  1178  1149  1161
  3  2718  2701  2734
  3  3887  3859  3892
  3  581  554  587
  3  1403  1377  1375
  3  1369  1381  1356
  3  176  186  202
  3  470  466  508
  3  2748  2734  2717
  3  787  748  766
  3  597  615  586
  3  586  615  602
  3  466  418  447
  3  126  130  109
  3  3931  3948  3958
  3  854  882  867
  3  3781  3814  3807
  3  780  750  767
  3  2865  2885  2852
  3  2230  2258  2253
  3  2675  2643  2667
  3  2527  2557  2541
  3  112  123  96
  3  2401  2385  2417
  3  3184  3179  3209
  3  3184  3209  3219
  3  736  753  767
  3  736  767  750
  3  349  362  391
  3  1236  1243  1215
  3  3219  3223  3190
  3  1218  1232  1250
  3  3909  3874  3911
  3  441  397  413
  3  441  413  472
  3  352  395  369
  3  2651  2668  2698
  3  602  633  630
  3  3711  3708  3659
  3  456  474  404
  3  678  648  673
  3  1137  1109  1142
  3  693  708  663
  3  693  663  665
  3  1542  1572  1558
  3  1972  2008  1993
  3  381  386  335
  3  3705  3741  3743
  3  1228  1255  1222
  3  3225  3254  3261
  3  414  432  379
  3  2611  2634  2661
  3  2661  2634  2674
  3  1162  1192  1167
  3  3762  3801  3806
  3  2324  2354  2371
  3  2371  2354  2385
  3  371  376  338
  3  3198  3225  3234
  3  3011  3041  3014
  3  3011  3014  2986
  3  3653  3684  3691
  3  2417  2452  2460
  3  2460  2452  2489
  3  3343  3368  3375
  3  1255  1283  1246
  3  1246  1283  1286
  3  453  472  413
  3  3741  3762  3775
  3  3775  3762  3806
  3  3741  3775  3779
  3  3779  3775  3811
  3  1513  1542  1530
  3  1142  1162  1137
  3  3597  3620  3639
  3  3639  3620  3653
  3  1111  1142  1109
  3  3313  3343  3347
  3  2057  2085  2086
  3  2581  2611  2613
  3  2149  2179  2171
  3  2265  2293  2273
  3  2293  2324  2323
  3  2702  2731  2708
  3  2702  2708  2674
  3  1449  1478  1475
  3  1475  1478  1513
  3  1784  1811  1800
  3  3441  3447  3406
  3  3524  3556  3565
  3  3492  3524  3536
  3  660  686  666
  3  1339  1368  1360
  3  1393  1422  1405
  3  1405  1422  1451
  3  1393  1386  1368
  3  2179  2208  2218
  3  2218  2208  2236
  3  3168  3198  3204
  3  2516  2545  2532
  3  2516  2532  2489
  3  2118  2149  2145
  3  1084  1111  1079
  3  567  587  554
  3  1311  1339  1305
  3  1311  1305  1283
  3  2851  2877  2881
  3  520  540  501
  3  520  501  493
  3  1896  1934  1913
  3  472  493  441
  3  3041  3071  3072
  3  3099  3134  3127
  3  3283  3313  3318
  3  3429  3459  3464
  3  3684  3705  3743
  3  3368  3399  3405
  3  2085  2118  2112
  3  2877  2912  2906
  3  3399  3429  3434
  3  2545  2581  2565
  3  974  1010  972
  3  432  453  392
  3  3071  3099  3101
  3  386  398  353
  3  376  381  347
  3  347  381  335
  3  376  347  338
  3  3556  3597  3592
  3  1192  1228  1198
  3  398  414  367
  3  3134  3168  3176
  3  1055  1084  1051
  3  3254  3283  3289
  3  540  567  528
  3  2912  2939  2931
  3  186  215  202
  3  2734  2750  2718
  3  3780  3794  3823
  3  917  887  896
  3  2884  2857  2839
  3  2839  2857  2830
  3  1394  1380  1353
  3  1993  1964  1972
  3  3415  3386  3382
  3  3807  3778  3781
  3  2294  2333  2316
  3  1215  1203  1236
  3  3799  3828  3826
  3  2107  2138  2128
  3  2843  2851  2881
  3  2377  2407  2378
  3  3629  3592  3639
  3  135  119  117
  3  830  794  795
  3  1354  1365  1329
  3  1451  1438  1412
  3  16  18  27
  3  2788  2797  2817
  3  1703  1733  1725
  3  855  825  840
  3  2916  2891  2927
  3  2504  2540  2535
  3  2734  2701  2717
  3  3031  3017  2992
  3  178  159  150
  3  3938  3917  3937
  3  2198  2190  2165
  3  93  81  103
  3  618  595  571
  3  1227  1209  1242
  3  1374  1356  1381
  3  1597  1584  1561
  3  1821  1793  1835
  3  909  889  923
  3  407  389  366
  3  2819  2809  2787
  3  2261  2255  2232
  3  2476  2464  2441
  3  3295  3265  3299
  3  4025  4024  4014
  3  1140  1128  1104
  3  19  16  25
  3  3770  3761  3733
  3  3696  3668  3698
  3  1893  1871  1906
  3  717  702  682
  3  838  818  850
  3  3516  3510  3483
  3  3085  3060  3098
  3  1617  1608  1572
  3  1593  1618  1587
  3  1593  1587  1563
  3  1563  1587  1544
  3  123  114  96
  3  392  379  432
  3  3171  3148  3188
  3  3492  3507  3459
  3  338  347  303
  3  1617  1642  1655
  3  2461  2489  2452
  3  1010  1039  1055
  3  3459  3463  3492
  3  1595  1617  1572
  3  1760  1784  1756
  3  969  974  940
  3  1934  1954  1972
  3  1857  1879  1896
  3  686  714  727
  3  756  762  727
  3  858  869  830
  3  1694  1717  1727
  3  795  821  830
  3  926  940  896
  3  3184  3219  3190
  3  1827  1800  1811
  3  3375  3347  3343
  3  2675  2667  2709
  3  725  727  762
  3  3993  3976  3975
  3  452  492  461
  3  2217  2247  2235
  3  231  264  263
  3  1762  1785  1754
  3  28  18  30
  3  28  30  41
  3  2509  2473  2504
  3  3735  3731  3773
  3  1395  1388  1354
  3  2498  2511  2475
  3  2026  1993  2008
  3  3820  3787  3813
  3  940  917  896
  3  1639  1617  1655
  3  2438  2401  2417
  3  2954  2983  2984
  3  699  666  686
  3  1351  1375  1377
  3  3957  3952  3925
  3  2780  2812  2823
  3  945  940  974
  3  4008  4026  4018
  3  3022  3061  3007
  3  3022  3007  2984
  3  842  850  818
  3  1813  1835  1793
  3  3597  3639  3592
  3  3242  3231  3194
  3  3951  3957  3932
  3  1785  1813  1776
  3  3211  3171  3188
  3  3211  3188  3223
  3  100  117  119
  3  3913  3935  3907
  3  2997  3031  2992
  3  2757  2794  2756
  3  3663  3659  3708
  3  1055  1026  1010
  3  347  335  303
  3  3695  3711  3659
  3  1883  1857  1896
  3  109  89  106
  3  2261  2232  2233
  3  830  869  835
  3  1934  1972  1964

CELL_TYPES 7508
5
5
5
5
5
5
5
5
5
5
5
5
5
5
5
5
5
5
5
5
5
5
5
5
5
5
5
5
5
5
5
5
5
5
5
5
5
5
5
5
5
5
5
5
5
5
5
5
5
5
5
5
5
5
5
5
5
5
5
5
5
5
5
5
5
5
5
5
5
5
5
5
5
5
5
5
5
5
5
5
5
5
5
5
5
5
5
5
5
5
5
5
5
5
5
5
5
5
5
5
5
5
5
5
5
5
5
5
5
5
5
5
5
5
5
5
5
5
5
5
5
5
5
5
5
5
5
5
5
5
5
5
5
5
5
5
5
5
5
5
5
5
5
5
5
5
5
5
5
5
5
5
5
5
5
5
5
5
5
5
5
5
5
5
5
5
5
5
5
5
5
5
5
5
5
5
5
5
5
5
5
5
5
5
5
5
5
5
5
5
5
5
5
5
5
5
5
5
5
5
5
5
5
5
5
5
5
5
5
5
5
5
5
5
5
5
5
5
5
5
5
5
5
5
5
5
5
5
5
5
5
5
5
5
5
5
5
5
5
5
5
5
5
5
5
5
5
5
5
5
5
5
5
5
5
5
5
5
5
5
5
5
5
5
5
5
5
5
5
5
5
5
5
5
5
5
5
5
5
5
5
5
5
5
5
5
5
5
5
5
5
5
5
5
5
5
5
5
5
5
5
5
5
5
5
5
5
5
5
5
5
5
5
5
5
5
5
5
5
5
5
5
5
5
5
5
5
5
5
5
5
5
5
5
5
5
5
5
5
5
5
5
5
5
5
5
5
5
5
5
5
5
5
5
5
5
5
5
5
5
5
5
5
5
5
5
5
5
5
5
5
5
5
5
5
5
5
5
5
5
5
5
5
5
5
5
5
5
5
5
5
5
5
5
5
5
5
5
5
5
5
5
5
5
5
5
5
5
5
5
5
5
5
5
5
5
5
5
5
5
5
5
5
5
5
5
5
5
5
5
5
5
5
5
5
5
5
5
5
5
5
5
5
5
5
5
5
5
5
5
5
5
5
5
5
5
5
5
5
5
5
5
5
5
5
5
5
5
5
5
5
5
5
5
5
5
5
5
5
5
5
5
5
5
5
5
5
5
5
5
5
5
5
5
5
5
5
5
5
5
5
5
5
5
5
5
5
5
5
5
5
5
5
5
5
5
5
5
5
5
5
5
5
5
5
5
5
5
5
5
5
5
5
5
5
5
5
5
5
5
5
5
5
5
5
5
5
5
5
5
5
5
5
5
5
5
5
5
5
5
5
5
5
5
5
5
5
5
5
5
5
5
5
5
5
5
5
5
5
5
5
5
5
5
5
5
5
5
5
5
5
5
5
5
5
5
5
5
5
5
5
5
5
5
5
5
5
5
5
5
5
5
5
5
5
5
5
5
5
5
5
5
5
5
5
5
5
5
5
5
5
5
5
5
5
5
5
5
5
5
5
5
5
5
5
5
5
5
5
5
5
5
5
5
5
5
5
5
5
5
5
5
5
5
5
5
5
5
5
5
5
5
5
5
5
5
5
5
5
5
5
5
5
5
5
5
5
5
5
5
5
5
5
5
5
5
5
5
5
5
5
5
5
5
5
5
5
5
5
5
5
5
5
5
5
5
5
5
5
5
5
5
5
5
5
5
5
5
5
5
5
5
5
5
5
5
5
5
5
5
5
5
5
5
5
5
5
5
5
5
5
5
5
5
5
5
5
5
5
5
5
5
5
5
5
5
5
5
5
5
5
5
5
5
5
5
5
5
5
5
5
5
5
5
5
5
5
5
5
5
5
5
5
5
5
5
5
5
5
5
5
5
5
5
5
5
5
5
5
5
5
5
5
5
5
5
5
5
5
5
5
5
5
5
5
5
5
5
5
5
5
5
5
5
5
5
5
5
5
5
5
5
5
5
5
5
5
5
5
5
5
5
5
5
5
5
5
5
5
5
5
5
5
5
5
5
5
5
5
5
5
5
5
5
5
5
5
5
5
5
5
5
5
5
5
5
5
5
5
5
5
5
5
5
5
5
5
5
5
5
5
5
5
5
5
5
5
5
5
5
5
5
5
5
5
5
5
5
5
5
5
5
5
5
5
5
5
5
5
5
5
5
5
5
5
5
5
5
5
5
5
5
5
5
5
5
5
5
5
5
5
5
5
5
5
5
5
5
5
5
5
5
5
5
5
5
5
5
5
5
5
5
5
5
5
5
5
5
5
5
5
5
5
5
5
5
5
5
5
5
5
5
5
5
5
5
5
5
5
5
5
5
5
5
5
5
5
5
5
5
5
5
5
5
5
5
5
5
5
5
5
5
5
5
5
5
5
5
5
5
5
5
5
5
5
5
5
5
5
5
5
5
5
5
5
5
5
5
5
5
5
5
5
5
5
5
5
5
5
5
5
5
5
5
5
5
5
5
5
5
5
5
5
5
5
5
5
5
5
5
5
5
5
5
5
5
5
5
5
5
5
5
5
5
5
5
5
5
5
5
5
5
5
5
5
5
5
5
5
5
5
5
5
5
5
5
5
5
5
5
5
5
5
5
5
5
5
5
5
5
5
5
5
5
5
5
5
5
5
5
5
5
5
5
5
5
5
5
5
5
5
5
5
5
5
5
5
5
5
5
5
5
5
5
5
5
5
5
5
5
5
5
5
5
5
5
5
5
5
5
5
5
5
5
5
5
5
5
5
5
5
5
5
5
5
5
5
5
5
5
5
5
5
5
5
5
5
5
5
5
5
5
5
5
5
5
5
5
5
5
5
5
5
5
5
5
5
5
5
5
5
5
5
5
5
5
5
5
5
5
5
5
5
5
5
5
5
5
5
5
5
5
5
5
5
5
5
5
5
5
5
5
5
5
5
5
5
5
5
5
5
5
5
5
5
5
5
5
5
5
5
5
5
5
5
5
5
5
5
5
5
5
5
5
5
5
5
5
5
5
5
5
5
5
5
5
5
5
5
5
5
5
5
5
5
5
5
5
5
5
5
5
5
5
5
5
5
5
5
5
5
5
5
5
5
5
5
5
5
5
5
5
5
5
5
5
5
5
5
5
5
5
5
5
5
5
5
5
5
5
5
5
5
5
5
5
5
5
5
5
5
5
5
5
5
5
5
5
5
5
5
5
5
5
5
5
5
5
5
5
5
5
5
5
5
5
5
5
5
5
5
5
5
5
5
5
5
5
5
5
5
5
5
5
5
5
5
5
5
5
5
5
5
5
5
5
5
5
5
5
5
5
5
5
5
5
5
5
5
5
5
5
5
5
5
5
5
5
5
5
5
5
5
5
5
5
5
5
5
5
5
5
5
5
5
5
5
5
5
5
5
5
5
5
5
5
5
5
5
5
5
5
5
5
5
5
5
5
5
5
5
5
5
5
5
5
5
5
5
5
5
5
5
5
5
5
5
5
5
5
5
5
5
5
5
5
5
5
5
5
5
5
5
5
5
5
5
5
5
5
5
5
5
5
5
5
5
5
5
5
5
5
5
5
5
5
5
5
5
5
5
5
5
5
5
5
5
5
5
5
5
5
5
5
5
5
5
5
5
5
5
5
5
5
5
5
5
5
5
5
5
5
5
5
5
5
5
5
5
5
5
5
5
5
5
5
5
5
5
5
5
5
5
5
5
5
5
5
5
5
5
5
5
5
5
5
5
5
5
5
5
5
5
5
5
5
5
5
5
5
5
5
5
5
5
5
5
5
5
5
5
5
5
5
5
5
5
5
5
5
5
5
5
5
5
5
5
5
5
5
5
5
5
5
5
5
5
5
5
5
5
5
5
5
5
5
5
5
5
5
5
5
5
5
5
5
5
5
5
5
5
5
5
5
5
5
5
5
5
5
5
5
5
5
5
5
5
5
5
5
5
5
5
5
5
5
5
5
5
5
5
5
5
5
5
5
5
5
5
5
5
5
5
5
5
5
5
5
5
5
5
5
5
5
5
5
5
5
5
5
5
5
5
5
5
5
5
5
5
5
5
5
5
5
5
5
5
5
5
5
5
5
5
5
5
5
5
5
5
5
5
5
5
5
5
5
5
5
5
5
5
5
5
5
5
5
5
5
5
5
5
5
5
5
5
5
5
5
5
5
5
5
5
5
5
5
5
5
5
5
5
5
5
5
5
5
5
5
5
5
5
5
5
5
5
5
5
5
5
5
5
5
5
5
5
5
5
5
5
5
5
5
5
5
5
5
5
5
5
5
5
5
5
5
5
5
5
5
5
5
5
5
5
5
5
5
5
5
5
5
5
5
5
5
5
5
5
5
5
5
5
5
5
5
5
5
5
5
5
5
5
5
5
5
5
5
5
5
5
5
5
5
5
5
5
5
5
5
5
5
5
5
5
5
5
5
5
5
5
5
5
5
5
5
5
5
5
5
5
5
5
5
5
5
5
5
5
5
5
5
5
5
5
5
5
5
5
5
5
5
5
5
5
5
5
5
5
5
5
5
5
5
5
5
5
5
5
5
5
5
5
5
5
5
5
5
5
5
5
5
5
5
5
5
5
5
5
5
5
5
5
5
5
5
5
5
5
5
5
5
5
5
5
5
5
5
5
5
5
5
5
5
5
5
5
5
5
5
5
5
5
5
5
5
5
5
5
5
5
5
5
5
5
5
5
5
5
5
5
5
5
5
5
5
5
5
5
5
5
5
5
5
5
5
5
5
5
5
5
5
5
5
5
5
5
5
5
5
5
5
5
5
5
5
5
5
5
5
5
5
5
5
5
5
5
5
5
5
5
5
5
5
5
5
5
5
5
5
5
5
5
5
5
5
5
5
5
5
5
5
5
5
5
5
5
5
5
5
5
5
5
5
5
5
5
5
5
5
5
5
5
5
5
5
5
5
5
5
5
5
5
5
5
5
5
5
5
5
5
5
5
5
5
5
5
5
5
5
5
5
5
5
5
5
5
5
5
5
5
5
5
5
5
5
5
5
5
5
5
5
5
5
5
5
5
5
5
5
5
5
5
5
5
5
5
5
5
5
5
5
5
5
5
5
5
5
5
5
5
5
5
5
5
5
5
5
5
5
5
5
5
5
5
5
5
5
5
5
5
5
5
5
5
5
5
5
5
5
5
5
5
5
5
5
5
5
5
5
5
5
5
5
5
5
5
5
5
5
5
5
5
5
5
5
5
5
5
5
5
5
5
5
5
5
5
5
5
5
5
5
5
5
5
5
5
5
5
5
5
5
5
5
5
5
5
5
5
5
5
5
5
5
5
5
5
5
5
5
5
5
5
5
5
5
5
5
5
5
5
5
5
5
5
5
5
5
5
5
5
5
5
5
5
5
5
5
5
5
5
5
5
5
5
5
5
5
5
5
5
5
5
5
5
5
5
5
5
5
5
5
5
5
5
5
5
5
5
5
5
5
5
5
5
5
5
5
5
5
5
5
5
5
5
5
5
5
5
5
5
5
5
5
5
5
5
5
5
5
5
5
5
5
5
5
5
5
5
5
5
5
5
5
5
5
5
5
5
5
5
5
5
5
5
5
5
5
5
5
5
5
5
5
5
5
5
5
5
5
5
5
5
5
5
5
5
5
5
5
5
5
5
5
5
5
5
5
5
5
5
5
5
5
5
5
5
5
5
5
5
5
5
5
5
5
5
5
5
5
5
5
5
5
5
5
5
5
5
5
5
5
5
5
5
5
5
5
5
5
5
5
5
5
5
5
5
5
5
5
5
5
5
5
5
5
5
5
5
5
5
5
5
5
5
5
5
5
5
5
5
5
5
5
5
5
5
5
5
5
5
5
5
5
5
5
5
5
5
5
5
5
5
5
5
5
5
5
5
5
5
5
5
5
5
5
5
5
5
5
5
5
5
5
5
5
5
5
5
5
5
5
5
5
5
5
5
5
5
5
5
5
5
5
5
5
5
5
5
5
5
5
5
5
5
5
5
5
5
5
5
5
5
5
5
5
5
5
5
5
5
5
5
5
5
5
5
5
5
5
5
5
5
5
5
5
5
5
5
5
5
5
5
5
5
5
5
5
5
5
5
5
5
5
5
5
5
5
5
5
5
5
5
5
5
5
5
5
5
5
5
5
5
5
5
5
5
5
5
5
5
5
5
5
5
5
5
5
5
5
5
5
5
5
5
5
5
5
5
5
5
5
5
5
5
5
5
5
5
5
5
5
5
5
5
5
5
5
5
5
5
5
5
5
5
5
5
5
5
5
5
5
5
5
5
5
5
5
5
5
5
5
5
5
5
5
5
5
5
5
5
5
5
5
5
5
5
5
5
5
5
5
5
5
5
5
5
5
5
5
5
5
5
5
5
5
5
5
5
5
5
5
5
5
5
5
5
5
5
5
5
5
5
5
5
5
5
5
5
5
5
5
5
5
5
5
5
5
5
5
5
5
5
5
5
5
5
5
5
5
5
5
5
5
5
5
5
5
5
5
5
5
5
5
5
5
5
5
5
5
5
5
5
5
5
5
5
5
5
5
5
5
5
5
5
5
5
5
5
5
5
5
5
5
5
5
5
5
5
5
5
5
5
5
5
5
5
5
5
5
5
5
5
5
5
5
5
5
5
5
5
5
5
5
5
5
5
5
5
5
5
5
5
5
5
5
5
5
5
5
5
5
5
5
5
5
5
5
5
5
5
5
5
5
5
5
5
5
5
5
5
5
5
5
5
5
5
5
5
5
5
5
5
5
5
5
5
5
5
5
5
5
5
5
5
5
5
5
5
5
5
5
5
5
5
5
5
5
5
5
5
5
5
5
5
5
5
5
5
5
5
5
5
5
5
5
5
5
5
5
5
5
5
5
5
5
5
5
5
5
5
5
5
5
5
5
5
5
5
5
5
5
5
5
5
5
5
5
5
5
5
5
5
5
5
5
5
5
5
5
5
5
5
5
5
5
5
5
5
5
5
5
5
5
5
5
5
5
5
5
5
5
5
5
5
5
5
5
5
5
5
5
5
5
5
5
5
5
5
5
5
5
5
5
5
5
5
5
5
5
5
5
5
5
5
5
5
5
5
5
5
5
5
5
5
5
5
5
5
5
5
5
5
5
5
5
5
5
5
5
5
5
5
5
5
5
5
5
5
5
5
5
5
5
5
5
5
5
5
5
5
5
5
5
5
5
5
5
5
5
5
5
5
5
5
5
5
5
5
5
5
5
5
5
5
5
5
5
5
5
5
5
5
5
5
5
5
5
5
5
5
5
5
5
5
5
5
5
5
5
5
5
5
5
5
5
5
5
5
5
5
5
5
5
5
5
5
5
5
5
5
5
5
5
5
5
5
5
5
5
5
5
5
5
5
5
5
5
5
5
5
5
5
5
5
5
5
5
5
5
5
5
5
5
5
5
5
5
5
5
5
5
5
5
5
5
5
5
5
5
5
5
5
5
5
5
5
5
5
5
5
5
5
5
5
5
5
5
5
5
5
5
5
5
5
5
5
5
5
5
5
5
5
5
5
5
5
5
5
5
5
5
5
5
5
5
5
5
5
5
5
5
5
5
5
5
5
5
5
5
5
5
5
5
5
5
5
5
5
5
5
5
5
5
5
5
5
5
5
5
5
5
5
5
5
5
5
5
5
5
5
5
5
5
5
5
5
5
5
5
5
5
5
5
5
5
5
5
5
5
5
5
5
5
5
5
5
5
5
5
5
5
5
5
5
5
5
5
5
5
5
5
5
5
5
5
5
5
5
5
5
5
5
5
5
5
5
5
5
5
5
5
5
5
5
5
5
5
5
5
5
5
5
5
5
5
5
5
5
5
5
5
5
5
5
5
5
5
5
5
5
5
5
5
5
5
5
5
5
5
5
5
5
5
5
5
5
5
5
5
5
5
5
5
5
5
5
5
5
5
5
5
5
5
5
5
5
5
5
5
5
5
5
5
5
5
5
5
5
5
5
5
5
5
5
5
5
5
5
5
5
5
5
5
5
5
5
5
5
5
5
5
5
5
5
5
5
5
5
5
5
5
5
5
5
5
5
5
5
5
5
5
5
5
5
5
5
5
5
5
5
5
5
5
5
5
5
5
5
5
5
5
5
5
5
5
5
5
5
5
5
5
5
5
5
5
5
5
5
5
5
5
5
5
5
5
5
5
5
5
5
5
5
5
5
5
5
5
5
5
5
5
5
5
5
5
5
5
5
5
5
5
5
5
5
5
5
5
5
5
5
5
5
5
5
5
5
5
5
5
5
5
5
5
5
5
5
5
5
5
5
5
5
5
5
5
5
5
5
5
5
5
5
5
5
5
5
5
5
5
5
5
5
5
5
5
5
5
5
5
5
5
5
5
5
5
5
5
5
5
5
5
5
5
5
5
5
5
5
5
5
5
5
5
5
5
5
5
5
5
5
5
5
5
5
5
5
5
5
5
5
5
5
5
5
5
5
5
5
5
5
5
5
5
5
5
5
5
5
5
5
5
5
5
5
5
5
5
5
5
5
5
5
5
5
5
5
5
5
5
5
5
5
5
5
5
5
5
5
5
5
5
5
5
5
5
5
5
5
5
5
5
5
5
5
5
5
5
5
5
5
5
5
5
5
5
5
5
5
5
5
5
5
5
5
5
5
5
5
5
5
5
5
5
5
5
5
5
5
5
5
5
5
5
5
5
5
5
5
5
5
5
5
5
5
5
5
5
5
5
5
5
5
5
5
5
5
5
5
5
5
5
5
5
5
5
5
5
5
5
5
5
5
5
5
5
5
5
5
5
5
5
5
5
5
5
5
5
5
5
5
5
5
5
5
5
5
5
5
5
5
5
5
5
5
5
5
5
5
5
5
5
5
5
5
5
5
5
5
5
5
5
5
5
5
5
5
5
5
5
5
5
5
5
5
5
5
5
5
5
5
5
5
5
5
5
5
5
5
5
5
5
5
5
5
5
5
5
5
5
5
5
5
5
5
5
5
5
5
5
5
5
5
5
5
5
5
5
5
5
5
5
5
5
5
5
5
5
5
5
5
5
5
5
5
5
5
5
5
5
5
5
5
5
5
5
5
5
5
5
5
5
5
5
5
5
5
5
5
5
5
5
5
5
5
5
5
5
5
5
5
5
5
5
5
5
5
5
5
5
5
5
5
5
5
5
5
5
5
5
5
5
5
5
5
5
5
5
5
5
5
5
5
5
5
5
5
5
5
5
5
5
5
5
5
5
5
5
5
5
5
5
5
5
5
5
5
5
5
5
5
5
5
5
5
5
5
5
5
5
5
5
5
5
5
5
5
5
5
5
5
5
5
5
5
5
5
5
5
5
5
5
5
5
5
5
5
5
5
5
5
5
5
5
5
5
5
5
5
5
5
5
5
5
5
5
5
5
5
5
5
5
5
5
5
5
5
5
5
5
5
5
5
5
5
5
5
5
5
5
5
5
5
5
5
5
5
5
5
5
5
5
5
5
5
5
5
5
5
5
5
5
5
5
5
5
5
5
5
5
5
5
5
5
5
5
5
5
5
5
5
5
5
5
5
5
5
5
5
5
5
5
5
5
5
5
5
5
5
5
5
5
5
5
5
5
5
5
5
5
5
5
5
5
5
5
5
5
5
5
5
5
5
5
5
5
5
5
5
5
5
5
5
5
5
5
5
5
5
5
5
5
5
5
5
5
5
5
5
5
5
5
5
5
5
5
5
5
5
5
5
5
5
5
5
5
5
5
5
5
5
5
5
5
5
5
5
5
5
5
5
5
5
5
5
5
5
5
5
5
5
5
5
5
5
5
5
5
5
5
5
5
5
5
5
5
5
5
5
5
5
5
5
5
5
5
5
5
5
5
5
5
5
5
5
5
5
5
5
5
5
5
5
5
5
5
5
5
5
5
5
5
5
5
5
5
5
5
5
5
5
5
5
5
5
5
5
5
5
5
5
5
5
5
5
5
5
5
5
5
5
5
5
5
5
5
5
5
5
5
5
5
5
5
5
5
5
5
5
5
5
5
5
5
5
5
5
5
5
5
5
5
5
5
5
5
5
5
5
5
5
5
5
5
5
5
5
5
5
5
5
5
5
5
5
5
5
5
5
5
5
5
5
5
5
5
5
5
5
5
5
5
5
5
5
5
5
5
5
5
5
5
5
5
5
5
5
5
5
5
5
5
5
5
5
5
5
5
5
5
5
5
5
5
5
5
5
5
5
5
5
5
5
5
5
5
5
5
5
5
5
5
5
5
5
5
5
5
5
5
5
5
5
5
5
5
5
5
5
5
5
5
5
5
5
5
5
5
5
5
5
5
5
5
5
5
5
5
5
5
5
5
5
5
5
5
5
5
5
5
5
5
5
5
5
5
5
5
5
5
5
5
5
5
5
5
5
5
5
5
5
5
5
5
5
5
5
5
5
5
5
5
5
5
5
5
5
5
5
5
5
5
5
5
5
5
5
5
5
5
5
5
5
5
5
5
5
5
5
5
5
5
5
5
5
5
5
5
5
5
5
5
5
5
5
5
5
5
5
5
5
5
5
5
5
5
5
5
5
5
5
5
5
5
5
5
5
5
5
5
5
5
5
5
5
5
5
5
5
5
5
5
5
5
5
5
5
5
5
5
5
5
5
5
5
5
5
5
5
5
5
5
5
5
5
5
5
5
5
5
5
5
5
5
5
5
5
5
5
5
5
5
5
5
5
5
5
5
5
5
5
5
5
5
5
5
5
5
5
5
5
5
5
5
5
5
5
5
5
5
5
5
5
5
5
5
5
5
5
5
5
5
5
5
5
5
5
5
5
5
5
5
5
5
5
5
5
5
5
5
5
5
5
5
5
5
5
5
5
5
5
5
5
5
5
5
5
5
5
5
5
5
5
5
5
5
5
5
5
5
5
5
5
5
5
5
5
5
5
5
5
5
5
5
5
5
5
5
5
5
5
5
5
5
5
5
5
5
5
5
5
5
5
5
5
5
5
5
5
5
5
5
5
5
5
5
5
5
5
5
5
5
5
5
5
5
5
5
5
5
5
5
5
5
5
5
5
5
5
5
5
5
5
5
5
5
5
5
5
5
5
5
5
5
5
5
5
5
5
5
5
5
5
5
5
5
5
5
5
5
5
5
5
5
5
5
5
5
5
5
5
5
5
5
5
5
5
5
5
5
5
5
5
5
5
5
5
5
5
5
5
5
5
5
5
5
5
5
5
5
5
5
5
5
5
5
5
5
5
5
5
5
5
5
5
5
5
5
5
5
5
5
5
5
5
5
5
5
5
5
5
5
5
5
5
5
5
5
5
5
5
5
5
5
5
5
5
5
5
5
5
5
5
5
5
5
5
5
5
5
5
5
5
5
5
5
5
5
5
5
5
5
5
5
5
5
5
5
5
5
5
5
5
5
5
5
5
5
5
5
5
5
5
5
5
5
5
5
5
5
5
5
5
5
5
5
5
5
5
5
5
5
5
5
5
5
5
5
5
5
5
5
5
5
5
5
5
5
5
5
5
5
5
5
5
5
5
5
5
5
5
5
5
5
5
5
5
5
5
5
5
5
5
5
5
5
5
5
5
5
5
5
5
5
5
5
5
5
5
5
5
5
5
5
5
5
5
5
5
5
5
5
5
5
5
5
5
5
5
5
5
5
5
5
5
5
5
5
5
5
5
5
5
5
5
5
5
5
5
5
5
5
5
5
5
5
5
5
5
5
5
5
5
5
5
5
5
5
5
5
5
5
5
5
5
5
5
5
5
5
5
5
5
5
5
5
5
5
5
5
5
5
5
5
5
5
5
5
5
5
5
5
5
5
5
5
5
5
5
5
5
5
5
5
5
5
5
5
5
5
5
5
5
5
5
5
5
5
5
5
5
5
5
5
5
5
5
5
5
5
5
5
5
5
5
5
5
5
5
5
5
5
5
5
5
5
5
5
5
5
5
5
5
5
5
5
5
5
5
5
5
5
5
5
5
5
5
5
5
5
5
5
5
5
5
5
5
5
5
5
5
5
5
5
5
5
5
5
5
5
5
5
5
5
5
5
5
5
5
5
5
5
5
5
5
5
5
5
5
5
5
5
5
5
5
5
5
5
5
5
5
5
5
5
5
5
5
5
5
5
5
5
5
5
5
5
5
5
5
5
5
5
5
5
5
5
5
5
5
5
5
5
5
5
5
5
5
5
5
5
5
5
5
5
5
5
5
5
5
5
5
5
5
5
5
5
5
5
5
5
5
5
5
5
5
5
5
5
5
5
5
5
5
5
5
5
5
5
5
5
5
5
5
5
5
5
5
5
5
5
5
5
5
5
5
5
5
5
5
5
5
5
5
5
5
5
5
5
5
5
5
5
5
5
5
5
5
5
5
5
5
5
5
5
5
5
5
5
5
5
5
5
5
5
5
5
5
5
5
5
5
5
5
5
5
5
5
5
5
5
5
5
5
5
5
5
5
5
5
5
5
5
5
5
5
5
5
5
5
5
5
5
5
5
5
5
5
5
5
5
5
5
5
5
5
5
5
5
5
5
5
5
5
5
5
5
5
5
5
5
5
5
5
5
5
5
5
5
5
5
5
5
5
5
5
5
5
5
5
5
5
5
5
5
5
5
5
5
5
5
5
5
5
5
5
5
5
5
5
5
5
5
5
5
5
5
5
5
5
5
5
5
5
5
5
5
5
5
5
5
5
5
5
5
5
5
5
5
5
5
5
5
5
5
5
5
5
5
5
5
5
5
5
5
5
5
5
5
5
5
5
5
5
5
5
5
5
5
5
5
5
5
5
5
5
5
5
5
5
5
5
5
5
5
5
5
5
5
5
5
5
5
5
5
5
5
5
5
5
5
5
5
5
5
5
5
5
5
5
5
5
5
5
5
5
5
5
5
5
5
5
5
5
5
5
5
5
5
5
5
5
5
5
5
5
5
5
5
5
5
5
5
5
5
5
5
5
5
5
5
5
5
5
5
5
5
5
5
5
5
5
5
5
5
5
5
5
5
5
5
5
5
5
5
5
5
5
5
5
5
5
5
5
5
5
5
5
5
5
5
5
5
5
5
5
5
5
5
5
5
5
5
5
5
5
5
5
5
5
5
5
5
5
5
5
5
5
5
5
5
5
5
5
5
5
5
5
5
5
5
5
5
5
5
5
5
5
5
5
5
5
5
5
5
5
5
5
5
5
5
5
5
5
5
5
5
5
5
5
5
5
5
5
5
5
5
5
5
5
5
5
5
5
5
5
5
5
5
5
5
5
5
5
5
5
5
5
5
5
5
5
5
5
5
5
5
5
5
5
5
5
5
5
5
5
5
5
5
5
5
5
5
5
5
5
5
5
5
5
5
5
5
5
5
5
5
5
5
5
5
5
5
5
5
5
5
5
5
5
5
5
5
5
5
5
5
5
5
5
5
5
5
5
5
5
5
5
5
5
5
5
5
5
5
5
5
5
5
5
5
5
5
5
5
5
5
5
5
5
5
5
5
5
5
5
5
5
5
5
5
5
5
5
5
5
5
5
5
5
5
5
5
5
5
5
5
5
5
5
5
5
5
5
5
5
5
5
5
5
5
5
5
5
5
5
5
5
5
5
5
5
5
5
5
5
5
5
5
5
5
5
5
5
5
5
5
5
5
5
5
5
5
5
5
5
5
5
5
5
5
5
5
5
5
5
5
5
5
5
5
5
5
5
5
5
5
5
5
5
5
5
5
5
5
5
5
5
5
5
5
5
5
5
5
5
5
5
5
5
5
5
5
5
5
5
5
5
5
5
5
5
5
5
5
5
5
5
5
5
5
5
5
5
5
5
5
5
5
5
5
5
5
5
5
5
5
5
5
5
5
5
5
5
5
5
5
5
5
5
5
5
5
5
5
5
5
5
5
5
5
5
5
5
5
5
5
5
5
5
5
5
5
5
5
5
5
5
5
5
5
5
5
5
5
5
5
5
5
5
5
5
5
5
5
5
5
5
5
5
5
5
5
5
5
5
5
5
5
5
5
5
5
5
5
5
5
5
5
5
5
5
5
5
5
5
5
5
5
5
5
5
5
5
5
5
5
5
5
5
5
5
5
5
5
5
5
5
5
5
5
5
5
5
5
5
5
5
5
5
5
5
5
5
5
5
5
5
5
5
5
5
5
5
5
5
5
5
5
5
5
5
5
5
5
5
5
5
5
5
5
5
5
5
5
5
5
5
5
5
5
5
5
5
5
5
5
5
5
5
5
5
5
5
5
5
5
5
5
5
5
5
5
5
5
5
5
5
5
5
5
5
5
5
5
5
5
5
5
5
5
5
5
5
5
5
5
5
5
5
5
5
5
5
5
5
5
5
5
5
5
5
5
5
5
5
5
5
5
5
5
5
5
5
5
5
5
5
5
5
5
5
5
5
5
5
5
5
5
5
5
5
5
5
5
5
5
5
5
5
5
5
5
5
5
5
5
5
5
5
5
5
5
5
5
5
5
5
5
5
5
5
5
5
5
5
5
5
5
5
5
5
5
5
5
5
5
5
5
5
5
5
5
5
5
5
5
5
5
5
5
5
5
5
5
5
5
5
5
5
5
5
5
5
5
5
5
5
5
5
5
5
5
5
5
5
5
5
5
5
5
5
5
5
5
5
5
5
5
5
5
5
5
5
5
5
5
5
5
5
5
5
5
5
5
5
5
5
5
5
5
5
5
5
5
5
5
5
5
5
5
5
5
5
5
5
5
5
5
5
5
5
5
5
5
5
5
5
5
5
5
5
5
5
5
5
5
5
5
5
5
5
5
5
5
5
5
5
5
5
5
5
5
5
5
5
5
5
5
5
5
5
5
5
5
5
5
5
5
5
5
5
5
5
5
5
5
5
5
5
5
5
5
5
5
5
5
5
5
5
5
5
5
5
5
5
5
5
5
5
5
5
5
5
5
5
5
5
5
5
5
5
5
5
5
5
5
5
5
5
5
5
5
5
5
5
5
5
5
5
5
5
5
5
5
5
5
5
5
5
5
5
5
5
5
5
5
5
5
5
5
5
5
5
5
5
5
5
5
5
5
5
5
5
5
5
5
5
5
5
5
5
5
5
5
5
5
5
5
5
5
5
5
5
5
5
5
5
5
5
5
5
5
5
5
5
5
5
5
5
5
5
5
5
5
5
5
5
5
5
5
5
5
5
5
5
5
5
5
5
5
5
5
5
5
5
5
5
5
5
5
5
5
5
5
5
5
5
5
5
5
5
5
5
5
5
5
5
5
5
5
5
5
5
5
5
5
5
5
5
5
5
5
5
5
5
5
5
5
5
5
5
5
5
5
5
5
5
5
5
5
5
5
5
5
5
5
5
5
5
5
5
5
5
5
5
5
5
5
5
5
5
5
5
5
5
5
5
5
5
5
5
5
5
5
5
5
5
5
5
5
5
5
5
5
5
5
5
5
5
5
5
5
5
5
5
5
5
5
5
5
5
5
5
5
5
5
5
5
5
5
5
5
5
5
5
5
5
5
5
5
5
5
5
5
5
5
5
5
5
5
5
5
5
5
5
5
5
5
5
5
5
5
5
5
5
5
5
5
5
5
5
5
5
5
5
5
5
5
5
5
5
5
5
5
5
5
5
5
5
5
5
5
5
5
5
5
5
5
5
5
5
5
5
5
5
5
5
5
5
5
5
5
5
5
5
5
5
5
5
5
5
5
5
5
5
5
5
5
5
5
5
5
5
5
5
5
5
5
5
5
5
5
5
5
5
5
5
5
5
5
5
5
5
5
5
5
5
5
5
5
5
5
5
5
5
5
5
5
5
5
5
5
5
5
5
5
5
5
5
5
5
5
5
5
5
5
5
5
5
5
5
5
5
5
5
5
5
5
5
5
5
5
5
5
5
5
5
5
5
5
5
5
5
5
5
5
5
5
5
5
5
5
5
5
5
5
5
5
5
5
5
5
5
5
5
5
5
5
5
5
5
5
5
5
5
5
5
5
5
5
5
5
5
5
5
5
5
5
5
5
5
5
5
5
5
5
5
5
5
5
5
5
5
5
5
5
5
5
5
5
5
5
5
5
5
5
5
5
5
5
5
5
5
5
5
5
5
5
5
5
5
5
5
5
5
5
5
5
5
5
5
5
5
5
5
5
5
5
5
5
5
5
5
5
5
5
5
5
5
5
5
5
5
5
5
5
5
5
5
5
5
5
5
5
5
5
5
5
5
5
5
5
5
5
5
5
5
5
5
5
5
5
5
5
5
5
5
5
5
5
5
5
5
5
5
5
5
5
5
5
5
5
5
5
5
5
5
5
5
5
5
5
5
5
5
5
5
5
5
5
5
5
5
5
5
5
5
5
5
5
5
5
5
5
5
5
5
5
5
5
5
5
5
5
5
5
5
5
5
5
5
5
5
5
5
5
5
5
5
5
5
5
5
5
5
5
5
5
5
5
5
5
5
5
5
5
5
5
5
5
5
5
5
5
5
5
5
5
5
5
5
5
5
5
5
5
5
5
5
5
5
5
5
5
5
5
5
5
5
5
5
5
5
5
5
5
5
5
5
5
5
5
5
5
5
5
5
5
5
5
5
5
5
5
5
5
5
5
5
5
5
5
5
5
5
5
5
5
5
5
5
5
5
5
5
5
5
5
5
5
5
5
5
5
5
5
5
5
5
5
5
5
5
5
5
5
5
5
5
5
5
5
5
5
5
5
5
5
5
5
5
5
5
5
5
5
5
5
5
5
5
5
5
5
5
5
5
5
5
5
5
5
5
5
5
5
5
5
5
5
5
5
5
5
5
5
5
5
5
5
5
5
5
5
5
5
5
5
5
5
5
5
5
5
5
5
5
5
5
5
5
5
5
5
5
5
5
5
5
5
5
5
5
5
5
5
5
5
5
5
5
5
5
5
5
5
5
5
5
5
5
5
5
5
5
5
5
5
5
5
5
5
5
5
5
5
5
5
5
5
5
5
5
5
5
5
5
5
5
5
5
5
5
5
5
5
5
5
5
5
5
5
5
5
5
5
5
5
5
5
5
5
5
5
5
5
5
5
5
5
5
5
5
5
5
5
5
5
5
5
5
5
5
5
5
5
5
5
5
5

CELL_DATA 7508
TENSORS strain double
  -0.000279  0.000005  0.000000
  0.000005  0.000000  0.000000
  0.000000  0.000000  0.000000

  -0.000234  0.000101  0.000000
  0.000101  -0.000042  0.000000
  0.000000  0.000000  0.000000

  -0.000100  0.000105  0.000000
  0.000105  -0.000109  0.000000
  0.000000  0.000000  0.000000

  -0.000013  0.000036  0.000000
  0.000036  -0.000093  0.000000
  0.000000  0.000000  0.000000

  -0.000282  0.000059  0.000000
  0.000059  -0.000010  0.000000
  0.000000  0.000000  0.000000

  -0.000167  0.000116  0.000000
  0.000116  -0.000081  0.000000
  0.000000  0.000000  0.000000

  -0.000045  0.000073  0.000000
  0.000073  -0.000114  0.000000
  0.000000  0.000000  0.000000

  -0.000002  0.000008  0.000000
  0.000008  -0.000046  0.000000
  0.000000  0.000000  0.000000

  -0.000297  0.000032  0.000000
  0.000032  -0.000002  0.000000
  0.000000  0.000000  0.000000

  -0.000202  0.000112  0.000000
  0.000112  -0.000062  0.000000
  0.000000  0.000000  0.000000

  -0.000070  0.000090  0.000000
  0.000090  -0.000114  0.000000
  0.000000  0.000000  0.000000

  -0.000005  0.000020  0.000000
  0.000020  -0.000072  0.000000
  0.000000  0.000000  0.000000

  -0.000259  0.000081  0.000000
  0.000081  -0.000025  0.000000
  0.000000  0.000000  0.000000

  -0.000134  0.000113  0.000000
  0.000113  -0.000096  0.000000
  0.000000  0.000000  0.000000

  -0.000027  0.000055  0.000000
  0.000055  -0.000106  0.000000
  0.000000  0.000000  0.000000

  0.000000  0.000002  0.000000
  0.000002  -0.000020  0.000000
  0.000000  0.000000  0.000000

  -0.000301  0.000016  0.000000
  0.000016  0.000001  0.000000
  0.000000  0.000000  0.000000

  -0.000219  0.000106  0.000000
  0.000106  -0.000051  0.000000
  0.000000  0.000000  0.000000

  -0.000084  0.000098  0.000000
  0.000098  -0.000111  0.000000
  0.000000  0.000000  0.000000

  -0.000009  0.000028  0.000000
  0.000028  -0.000082  0.000000
  0.000000  0.000000  0.000000

  -0.000273  0.000071  0.000000
  0.000071  -0.000018  0.000000
  0.000000  0.000000  0.000000

  -0.000151  0.000116  0.000000
  0.000116  -0.000088  0.000000
  0.000000  0.000000  0.000000

  -0.000036  0.000064  0.000000
  0.000064  -0.000111  0.000000
  0.000000  0.000000  0.000000

  -0.000001  0.000005  0.000000
  0.000005  -0.000032  0.000000
  0.000000  0.000000  0.000000

  -0.000292  0.000045  0.000000
  0.000045  -0.000007  0.000000
  0.000000  0.000000  0.000000

  -0.000184  0.000115  0.000000
  0.000115  -0.000072  0.000000
  0.000000  0.000000  0.000000

  -0.000058  0.000082  0.000000
  0.000082  -0.000114  0.000000
  0.000000  0.000000  0.000000

  -0.000003  0.000014  0.000000
  0.000014  -0.000059  0.000000
  0.000000  0.000000  0.000000

  -0.000248  0.000092  0.000000
  0.000092  -0.000033  0.000000
  0.000000  0.000000  0.000000

  -0.000116  0.000109  0.000000
  0.000109  -0.000102  0.000000
  0.000000  0.000000  0.000000

  -0.000020  0.000045  0.000000
  0.000045  -0.000100  0.000000
  0.000000  0.000000  0.000000

  0.000002  0.000002  0.000000
  0.000002  -0.000010  0.000000
  0.000000  0.000000  0.000000

  -0.000299  0.000009  0.000000
  0.000009  0.000000  0.000000
  0.000000  0.000000  0.000000

  -0.000226  0.000105  0.000000
  0.000105  -0.000047  0.000000
  0.000000  0.000000  0.000000

  -0.000093  0.000101  0.000000
  0.000101  -0.000110  0.000000
  0.000000  0.000000  0.000000

  -0.000011  0.000031  0.000000
  0.000031  -0.000088  0.000000
  0.000000  0.000000  0.000000

  -0.000277  0.000064  0.000000
  0.000064  -0.000015  0.000000
  0.000000  0.000000  0.000000

  -0.000157  0.000115  0.000000
  0.000115  -0.000083  0.000000
  0.000000  0.000000  0.000000

  -0.000041  0.000068  0.000000
  0.000068  -0.000112  0.000000
  0.000000  0.000000  0.000000

  -0.000001  0.000006  0.000000
  0.000006  -0.000039  0.000000
  0.000000  0.000000  0.000000

  -0.000295  0.000039  0.000000
  0.000039  -0.000004  0.000000
  0.000000  0.000000  0.000000

  -0.000193  0.000114  0.000000
  0.000114  -0.000065  0.000000
  0.000000  0.000000  0.000000

  -0.000063  0.000087  0.000000
  0.000087  -0.000115  0.000000
  0.000000  0.000000  0.000000

  -0.000004  0.000017  0.000000
  0.000017  -0.000066  0.000000
  0.000000  0.000000  0.000000

  -0.000255  0.000087  0.000000
  0.000087  -0.000029  0.000000
  0.000000  0.000000  0.000000

  -0.000123  0.000111  0.000000
  0.000111  -0.000097  0.000000
  0.000000  0.000000  0.000000

  -0.000024  0.000050  0.000000
  0.000050  -0.000104  0.000000
  0.000000  0.000000  0.000000

  0.000000  0.000001  0.000000
  0.000001  -0.000016  0.000000
  0.000000  0.000000  0.000000

  -0.000301  0.000024  0.000000
  0.000024  0.000000  0.000000
  0.000000  0.000000  0.000000

  -0.000208  0.000109  0.000000
  0.000109  -0.000055  0.000000
  0.000000  0.000000  0.000000

  -0.000077  0.000094  0.000000
  0.000094  -0.000113  0.000000
  0.000000  0.000000  0.000000

  -0.000007  0.000024  0.000000
  0.000024  -0.000077  0.000000
  0.000000  0.000000  0.000000

  -0.000269  0.000077  0.000000
  0.000077  -0.000021  0.000000
  0.000000  0.000000  0.000000

  -0.000140  0.000113  0.000000
  0.000113  -0.000091  0.000000
  0.000000  0.000000  0.000000

  -0.000031  0.000059  0.000000
  0.000059  -0.000109  0.000000
  0.000000  0.000000  0.000000

  -0.000000  0.000003  0.000000
  0.000003  -0.000026  0.000000
  0.000000  0.000000  0.000000

  -0.000289  0.000052  0.000000
  0.000052  -0.000008  0.000000
  0.000000  0.000000  0.000000

  -0.000176  0.000116  0.000000
  0.000116  -0.000076  0.000000
  0.000000  0.000000  0.000000

  -0.000051  0.000077  0.000000
  0.000077  -0.000114  0.000000
  0.000000  0.000000  0.000000

  -0.000002  0.000011  0.000000
  0.000011  -0.000053  0.000000
  0.000000  0.000000  0.000000

  -0.000242  0.000096  0.000000
  0.000096  -0.000037  0.000000
  0.000000  0.000000  0.000000

  -0.000107  0.000107  0.000000
  0.000107  -0.000105  0.000000
  0.000000  0.000000  0.000000

  -0.000017  0.000040  0.000000
  0.000040  -0.000096  0.000000
  0.000000  0.000000  0.000000

  -0.000294  0.000005  0.000000
  0.000005  0.000001  0.000000
  0.000000  0.000000  0.000000

  -0.000230  0.000102  0.000000
  0.000102  -0.000045  0.000000
  0.000000  0.000000  0.000000

  -0.000097  0.000103  0.000000
  0.000103  -0.000109  0.000000
  0.000000  0.000000  0.000000

  -0.000012  0.000034  0.000000
  0.000034  -0.000090  0.000000
  0.000000  0.000000  0.000000

  -0.000281  0.000062  0.000000
  0.000062  -0.000011  0.000000
  0.000000  0.000000  0.000000

  -0.000163  0.000116  0.000000
  0.000116  -0.000082  0.000000
  0.000000  0.000000  0.000000

  -0.000043  0.000071  0.000000
  0.000071  -0.000113  0.000000
  0.000000  0.000000  0.000000

  -0.000001  0.000007  0.000000
  0.000007  -0.000043  0.000000
  0.000000  0.000000  0.000000

  -0.000297  0.000035  0.000000
  0.000035  -0.000002  0.000000
  0.000000  0.000000  0.000000

  -0.000198  0.000112  0.000000
  0.000112  -0.000062  0.000000
  0.000000  0.000000  0.000000

  -0.000067  0.000088  0.000000
  0.000088  -0.000115  0.000000
  0.000000  0.000000  0.000000

  -0.000005  0.000019  0.000000
  0.000019  -0.000069  0.000000
  0.000000  0.000000  0.000000

  -0.000258  0.000085  0.000000
  0.000085  -0.000025  0.000000
  0.000000  0.000000  0.000000

  -0.000129  0.000112  0.000000
  0.000112  -0.000099  0.000000
  0.000000  0.000000  0.000000

  -0.000025  0.000052  0.000000
  0.000052  -0.000105  0.000000
  0.000000  0.000000  0.000000

  0.000000  0.000001  0.000000
  0.000001  -0.000017  0.000000
  0.000000  0.000000  0.000000

  -0.000301  0.000020  0.000000
  0.000020  0.000001  0.000000
  0.000000  0.000000  0.000000

  -0.000214  0.000107  0.000000
  0.000107  -0.000054  0.000000
  0.000000  0.000000  0.000000

  -0.000080  0.000096  0.000000
  0.000096  -0.000112  0.000000
  0.000000  0.000000  0.000000

  -0.000008  0.000026  0.000000
  0.000026  -0.000080  0.000000
  0.000000  0.000000  0.000000

  -0.000271  0.000074  0.000000
  0.000074  -0.000018  0.000000
  0.000000  0.000000  0.000000

  -0.000145  0.000115  0.000000
  0.000115  -0.000091  0.000000
  0.000000  0.000000  0.000000

  -0.000033  0.000061  0.000000
  0.000061  -0.000110  0.000000
  0.000000  0.000000  0.000000

  -0.000000  0.000004  0.000000
  0.000004  -0.000029  0.000000
  0.000000  0.000000  0.000000

  -0.000290  0.000048  0.000000
  0.000048  -0.000008  0.000000
  0.000000  0.000000  0.000000

  -0.000180  0.000115  0.000000
  0.000115  -0.000074  0.000000
  0.000000  0.000000  0.000000

  -0.000055  0.000080  0.000000
  0.000080  -0.000115  0.000000
  0.000000  0.000000  0.000000

  -0.000002  0.000013  0.000000
  0.000013  -0.000056  0.000000
  0.000000  0.000000  0.000000

  -0.000245  0.000094  0.000000
  0.000094  -0.000035  0.000000
  0.000000  0.000000  0.000000

  -0.000112  0.000108  0.000000
  0.000108  -0.000103  0.000000
  0.000000  0.000000  0.000000

  -0.000018  0.000042  0.000000
  0.000042  -0.000098  0.000000
  0.000000  0.000000  0.000000

  -0.000300  0.000012  0.000000
  0.000012  -0.000001  0.000000
  0.000000  0.000000  0.000000

  -0.000223  0.000106  0.000000
  0.000106  -0.000050  0.000000
  0.000000  0.000000  0.000000

  -0.000088  0.000099  0.000000
  0.000099  -0.000111  0.000000
  0.000000  0.000000  0.000000

  -0.000010  0.000029  0.000000
  0.000029  -0.000085  0.000000
  0.000000  0.000000  0.000000

  -0.000275  0.000068  0.000000
  0.000068  -0.000016  0.000000
  0.000000  0.000000  0.000000

  -0.000155  0.000116  0.000000
  0.000116  -0.000085  0.000000
  0.000000  0.000000  0.000000

  -0.000039  0.000066  0.000000
  0.000066  -0.000112  0.000000
  0.000000  0.000000  0.000000

  -0.000001  0.000006  0.000000
  0.000006  -0.000036  0.000000
  0.000000  0.000000  0.000000

  -0.000293  0.000041  0.000000
  0.000041  -0.000004  0.000000
  0.000000  0.000000  0.000000

  -0.000189  0.000114  0.000000
  0.000114  -0.000069  0.000000
  0.000000  0.000000  0.000000

  -0.000061  0.000084  0.000000
  0.000084  -0.000115  0.000000
  0.000000  0.000000  0.000000

  -0.000004  0.000015  0.000000
  0.000015  -0.000063  0.000000
  0.000000  0.000000  0.000000

  -0.000251  0.000090  0.000000
  0.000090  -0.000032  0.000000
  0.000000  0.000000  0.000000

  -0.000122  0.000110  0.000000
  0.000110  -0.000100  0.000000
  0.000000  0.000000  0.000000

  -0.000022  0.000047  0.000000
  0.000047  -0.000102  0.000000
  0.000000  0.000000  0.000000

  0.000001  0.000001  0.000000
  0.000001  -0.000014  0.000000
  0.000000  0.000000  0.000000

  -0.000299  0.000027  0.000000
  0.000027  -0.000000  0.000000
  0.000000  0.000000  0.000000

  -0.000205  0.000112  0.000000
  0.000112  -0.000058  0.000000
  0.000000  0.000000  0.000000

  -0.000074  0.000092  0.000000
  0.000092  -0.000112  0.000000
  0.000000  0.000000  0.000000

  -0.000006  0.000022  0.000000
  0.000022  -0.000075  0.000000
  0.000000  0.000000  0.000000

  -0.000265  0.000080  0.000000
  0.000080  -0.000024  0.000000
  0.000000  0.000000  0.000000

  -0.000138  0.000115  0.000000
  0.000115  -0.000094  0.000000
  0.000000  0.000000  0.000000

  -0.000030  0.000057  0.000000
  0.000057  -0.000109  0.000000
  0.000000  0.000000  0.000000

  -0.000000  0.000003  0.000000
  0.000003  -0.000023  0.000000
  0.000000  0.000000  0.000000

  -0.000285  0.000055  0.000000
  0.000055  -0.000009  0.000000
  0.000000  0.000000  0.000000

  -0.000171  0.000116  0.000000
  0.000116  -0.000078  0.000000
  0.000000  0.000000  0.000000

  -0.000049  0.000075  0.000000
  0.000075  -0.000114  0.000000
  0.000000  0.000000  0.000000

  -0.000002  0.000010  0.000000
  0.000010  -0.000050  0.000000
  0.000000  0.000000  0.000000

  -0.000237  0.000097  0.000000
  0.000097  -0.000040  0.000000
  0.000000  0.000000  0.000000

  -0.000104  0.000106  0.000000
  0.000106  -0.000106  0.000000
  0.000000  0.000000  0.000000

  -0.000015  0.000038  0.000000
  0.000038  -0.000095  0.000000
  0.000000  0.000000  0.000000

  -0.000288  0.000004  0.000000
  0.000004  0.000002  0.000000
  0.000000  0.000000  0.000000

  -0.000233  0.000101  0.000000
  0.000101  -0.000042  0.000000
  0.000000  0.000000  0.000000

  -0.000097  0.000103  0.000000
  0.000103  -0.000107  0.000000
  0.000000  0.000000  0.000000

  -0.000013  0.000035  0.000000
  0.000035  -0.000091  0.000000
  0.000000  0.000000  0.000000

  -0.000282  0.000061  0.000000
  0.000061  -0.000013  0.000000
  0.000000  0.000000  0.000000

  -0.000165  0.000117  0.000000
  0.000117  -0.000080  0.000000
  0.000000  0.000000  0.000000

  -0.000045  0.000072  0.000000
  0.000072  -0.000114  0.000000
  0.000000  0.000000  0.000000

  -0.000001  0.000008  0.000000
  0.000008  -0.000045  0.000000
  0.000000  0.000000  0.000000

  -0.000298  0.000033  0.000000
  0.000033  -0.000004  0.000000
  0.000000  0.000000  0.000000

  -0.000200  0.000112  0.000000
  0.000112  -0.000062  0.000000
  0.000000  0.000000  0.000000

  -0.000069  0.000090  0.000000
  0.000090  -0.000114  0.000000
  0.000000  0.000000  0.000000

  -0.000005  0.000020  0.000000
  0.000020  -0.000071  0.000000
  0.000000  0.000000  0.000000

  -0.000259  0.000084  0.000000
  0.000084  -0.000027  0.000000
  0.000000  0.000000  0.000000

  -0.000131  0.000113  0.000000
  0.000113  -0.000096  0.000000
  0.000000  0.000000  0.000000

  -0.000026  0.000053  0.000000
  0.000053  -0.000106  0.000000
  0.000000  0.000000  0.000000

  -0.000000  0.000002  0.000000
  0.000002  -0.000019  0.000000
  0.000000  0.000000  0.000000

  -0.000301  0.000019  0.000000
  0.000019  -0.000002  0.000000
  0.000000  0.000000  0.000000

  -0.000215  0.000107  0.000000
  0.000107  -0.000052  0.000000
  0.000000  0.000000  0.000000

  -0.000084  0.000096  0.000000
  0.000096  -0.000112  0.000000
  0.000000  0.000000  0.000000

  -0.000009  0.000027  0.000000
  0.000027  -0.000082  0.000000
  0.000000  0.000000  0.000000

  -0.000272  0.000074  0.000000
  0.000074  -0.000020  0.000000
  0.000000  0.000000  0.000000

  -0.000148  0.000115  0.000000
  0.000115  -0.000088  0.000000
  0.000000  0.000000  0.000000

  -0.000035  0.000062  0.000000
  0.000062  -0.000111  0.000000
  0.000000  0.000000  0.000000

  -0.000000  0.000004  0.000000
  0.000004  -0.000031  0.000000
  0.000000  0.000000  0.000000

  -0.000290  0.000047  0.000000
  0.000047  -0.000006  0.000000
  0.000000  0.000000  0.000000

  -0.000182  0.000115  0.000000
  0.000115  -0.000070  0.000000
  0.000000  0.000000  0.000000

  -0.000056  0.000082  0.000000
  0.000082  -0.000115  0.000000
  0.000000  0.000000  0.000000

  -0.000003  0.000013  0.000000
  0.000013  -0.000058  0.000000
  0.000000  0.000000  0.000000

  -0.000247  0.000093  0.000000
  0.000093  -0.000035  0.000000
  0.000000  0.000000  0.000000

  -0.000113  0.000109  0.000000
  0.000109  -0.000102  0.000000
  0.000000  0.000000  0.000000

  -0.000019  0.000043  0.000000
  0.000043  -0.000099  0.000000
  0.000000  0.000000  0.000000

  0.000005  0.000005  0.000000
  0.000005  -0.000005  0.000000
  0.000000  0.000000  0.000000

  -0.000299  0.000011  0.000000
  0.000011  0.000001  0.000000
  0.000000  0.000000  0.000000

  -0.000224  0.000105  0.000000
  0.000105  -0.000048  0.000000
  0.000000  0.000000  0.000000

  -0.000090  0.000100  0.000000
  0.000100  -0.000109  0.000000
  0.000000  0.000000  0.000000

  -0.000010  0.000031  0.000000
  0.000031  -0.000086  0.000000
  0.000000  0.000000  0.000000

  -0.000274  0.000066  0.000000
  0.000066  -0.000016  0.000000
  0.000000  0.000000  0.000000

  -0.000156  0.000116  0.000000
  0.000116  -0.000085  0.000000
  0.000000  0.000000  0.000000

  -0.000039  0.000067  0.000000
  0.000067  -0.000112  0.000000
  0.000000  0.000000  0.000000

  -0.000001  0.000006  0.000000
  0.000006  -0.000038  0.000000
  0.000000  0.000000  0.000000

  -0.000296  0.000041  0.000000
  0.000041  -0.000005  0.000000
  0.000000  0.000000  0.000000

  -0.000192  0.000114  0.000000
  0.000114  -0.000066  0.000000
  0.000000  0.000000  0.000000

  -0.000063  0.000085  0.000000
  0.000085  -0.000114  0.000000
  0.000000  0.000000  0.000000

  -0.000004  0.000016  0.000000
  0.000016  -0.000065  0.000000
  0.000000  0.000000  0.000000

  -0.000252  0.000088  0.000000
  0.000088  -0.000030  0.000000
  0.000000  0.000000  0.000000

  -0.000124  0.000111  0.000000
  0.000111  -0.000099  0.000000
  0.000000  0.000000  0.000000

  -0.000022  0.000048  0.000000
  0.000048  -0.000103  0.000000
  0.000000  0.000000  0.000000

  0.000000  0.000001  0.000000
  0.000001  -0.000015  0.000000
  0.000000  0.000000  0.000000

  -0.000300  0.000026  0.000000
  0.000026  -0.000002  0.000000
  0.000000  0.000000  0.000000

  -0.000208  0.000109  0.000000
  0.000109  -0.000058  0.000000
  0.000000  0.000000  0.000000

  -0.000076  0.000094  0.000000
  0.000094  -0.000114  0.000000
  0.000000  0.000000  0.000000

  -0.000007  0.000023  0.000000
  0.000023  -0.000076  0.000000
  0.000000  0.000000  0.000000

  -0.000266  0.000078  0.000000
  0.000078  -0.000022  0.000000
  0.000000  0.000000  0.000000

  -0.000140  0.000116  0.000000
  0.000116  -0.000094  0.000000
  0.000000  0.000000  0.000000

  -0.000030  0.000058  0.000000
  0.000058  -0.000109  0.000000
  0.000000  0.000000  0.000000

  -0.000000  0.000003  0.000000
  0.000003  -0.000024  0.000000
  0.000000  0.000000  0.000000

  -0.000288  0.000054  0.000000
  0.000054  -0.000010  0.000000
  0.000000  0.000000  0.000000

  -0.000174  0.000116  0.000000
  0.000116  -0.000075  0.000000
  0.000000  0.000000  0.000000

  -0.000051  0.000077  0.000000
  0.000077  -0.000115  0.000000
  0.000000  0.000000  0.000000

  -0.000002  0.000010  0.000000
  0.000010  -0.000051  0.000000
  0.000000  0.000000  0.000000

  -0.000238  0.000096  0.000000
  0.000096  -0.000038  0.000000
  0.000000  0.000000  0.000000

  -0.000106  0.000106  0.000000
  0.000106  -0.000106  0.000000
  0.000000  0.000000  0.000000

  -0.000015  0.000039  0.000000
  0.000039  -0.000096  0.000000
  0.000000  0.000000  0.000000

  -0.000296  0.000008  0.000000
  0.000008  0.000002  0.000000
  0.000000  0.000000  0.000000

  -0.000228  0.000102  0.000000
  0.000102  -0.000046  0.000000
  0.000000  0.000000  0.000000

  -0.000095  0.000103  0.000000
  0.000103  -0.000109  0.000000
  0.000000  0.000000  0.000000

  -0.000012  0.000033  0.000000
  0.000033  -0.000088  0.000000
  0.000000  0.000000  0.000000

  -0.000279  0.000063  0.000000
  0.000063  -0.000014  0.000000
  0.000000  0.000000  0.000000

  -0.000160  0.000116  0.000000
  0.000116  -0.000082  0.000000
  0.000000  0.000000  0.000000

  -0.000042  0.000069  0.000000
  0.000069  -0.000113  0.000000
  0.000000  0.000000  0.000000

  -0.000001  0.000007  0.000000
  0.000007  -0.000041  0.000000
  0.000000  0.000000  0.000000

  -0.000296  0.000037  0.000000
  0.000037  -0.000005  0.000000
  0.000000  0.000000  0.000000

  -0.000197  0.000113  0.000000
  0.000113  -0.000064  0.000000
  0.000000  0.000000  0.000000

  -0.000066  0.000087  0.000000
  0.000087  -0.000115  0.000000
  0.000000  0.000000  0.000000

  -0.000005  0.000018  0.000000
  0.000018  -0.000068  0.000000
  0.000000  0.000000  0.000000

  -0.000257  0.000086  0.000000
  0.000086  -0.000028  0.000000
  0.000000  0.000000  0.000000

  -0.000126  0.000113  0.000000
  0.000113  -0.000099  0.000000
  0.000000  0.000000  0.000000

  -0.000024  0.000051  0.000000
  0.000051  -0.000104  0.000000
  0.000000  0.000000  0.000000

  -0.000000  0.000001  0.000000
  0.000001  -0.000016  0.000000
  0.000000  0.000000  0.000000

  -0.000301  0.000023  0.000000
  0.000023  -0.000002  0.000000
  0.000000  0.000000  0.000000

  -0.000211  0.000108  0.000000
  0.000108  -0.000055  0.000000
  0.000000  0.000000  0.000000

  -0.000080  0.000095  0.000000
  0.000095  -0.000112  0.000000
  0.000000  0.000000  0.000000

  -0.000008  0.000025  0.000000
  0.000025  -0.000079  0.000000
  0.000000  0.000000  0.000000

  -0.000270  0.000076  0.000000
  0.000076  -0.000021  0.000000
  0.000000  0.000000  0.000000

  -0.000143  0.000116  0.000000
  0.000116  -0.000092  0.000000
  0.000000  0.000000  0.000000

  -0.000032  0.000060  0.000000
  0.000060  -0.000110  0.000000
  0.000000  0.000000  0.000000

  -0.000000  0.000003  0.000000
  0.000003  -0.000027  0.000000
  0.000000  0.000000  0.000000

  -0.000289  0.000051  0.000000
  0.000051  -0.000007  0.000000
  0.000000  0.000000  0.000000

  -0.000176  0.000116  0.000000
  0.000116  -0.000074  0.000000
  0.000000  0.000000  0.000000

  -0.000053  0.000079  0.000000
  0.000079  -0.000114  0.000000
  0.000000  0.000000  0.000000

  -0.000003  0.000012  0.000000
  0.000012  -0.000055  0.000000
  0.000000  0.000000  0.000000

  -0.000243  0.000096  0.000000
  0.000096  -0.000037  0.000000
  0.000000  0.000000  0.000000

  -0.000111  0.000108  0.000000
  0.000108  -0.000104  0.000000
  0.000000  0.000000  0.000000

  -0.000017  0.000041  0.000000
  0.000041  -0.000097  0.000000
  0.000000  0.000000  0.000000

  -0.000301  0.000015  0.000000
  0.000015  0.000001  0.000000
  0.000000  0.000000  0.000000

  -0.000220  0.000106  0.000000
  0.000106  -0.000049  0.000000
  0.000000  0.000000  0.000000

  -0.000086  0.000098  0.000000
  0.000098  -0.000111  0.000000
  0.000000  0.000000  0.000000

  -0.000009  0.000029  0.000000
  0.000029  -0.000084  0.000000
  0.000000  0.000000  0.000000

  -0.000276  0.000069  0.000000
  0.000069  -0.000016  0.000000
  0.000000  0.000000  0.000000

  -0.000152  0.000116  0.000000
  0.000116  -0.000087  0.000000
  0.000000  0.000000  0.000000

  -0.000037  0.000065  0.000000
  0.000065  -0.000112  0.000000
  0.000000  0.000000  0.000000

  -0.000001  0.000005  0.000000
  0.000005  -0.000034  0.000000
  0.000000  0.000000  0.000000

  -0.000292  0.000044  0.000000
  0.000044  -0.000006  0.000000
  0.000000  0.000000  0.000000

  -0.000186  0.000114  0.000000
  0.000114  -0.000069  0.000000
  0.000000  0.000000  0.000000

  -0.000059  0.000083  0.000000
  0.000083  -0.000115  0.000000
  0.000000  0.000000  0.000000

  -0.000003  0.000015  0.000000
  0.000015  -0.000061  0.000000
  0.000000  0.000000  0.000000

  -0.000250  0.000091  0.000000
  0.000091  -0.000032  0.000000
  0.000000  0.000000  0.000000

  -0.000118  0.000110  0.000000
  0.000110  -0.000101  0.000000
  0.000000  0.000000  0.000000

  -0.000020  0.000046  0.000000
  0.000046  -0.000101  0.000000
  0.000000  0.000000  0.000000

  0.000001  0.000001  0.000000
  0.000001  -0.000013  0.000000
  0.000000  0.000000  0.000000

  -0.000299  0.000030  0.000000
  0.000030  -0.000003  0.000000
  0.000000  0.000000  0.000000

  -0.000204  0.000111  0.000000
  0.000111  -0.000059  0.000000
  0.000000  0.000000  0.000000

  -0.000073  0.000091  0.000000
  0.000091  -0.000114  0.000000
  0.000000  0.000000  0.000000

  -0.000006  0.000021  0.000000
  0.000021  -0.000074  0.000000
  0.000000  0.000000  0.000000

  -0.000262  0.000081  0.000000
  0.000081  -0.000024  0.000000
  0.000000  0.000000  0.000000

  -0.000134  0.000112  0.000000
  0.000112  -0.000093  0.000000
  0.000000  0.000000  0.000000

  -0.000028  0.000056  0.000000
  0.000056  -0.000107  0.000000
  0.000000  0.000000  0.000000

  -0.000000  0.000002  0.000000
  0.000002  -0.000021  0.000000
  0.000000  0.000000  0.000000

  -0.000284  0.000057  0.000000
  0.000057  -0.000012  0.000000
  0.000000  0.000000  0.000000

  -0.000169  0.000116  0.000000
  0.000116  -0.000077  0.000000
  0.000000  0.000000  0.000000

  -0.000047  0.000074  0.000000
  0.000074  -0.000115  0.000000
  0.000000  0.000000  0.000000

  -0.000001  0.000009  0.000000
  0.000009  -0.000048  0.000000
  0.000000  0.000000  0.000000

  -0.000236  0.000099  0.000000
  0.000099  -0.000041  0.000000
  0.000000  0.000000  0.000000

  -0.000102  0.000105  0.000000
  0.000105  -0.000108  0.000000
  0.000000  0.000000  0.000000

  -0.000015  0.000037  0.000000
  0.000037  -0.000094  0.000000
  0.000000  0.000000  0.000000

  -0.000005  0.000005  0.000000
  0.000005  0.000005  0.000000
  0.000000  0.000000  0.000000

  0.000051  -0.000070  0.000000
  -0.000070  0.000093  0.000000
  0.000000  0.000000  0.000000

  0.000213  -0.000063  0.000000
  -0.000063  0.000016  0.000000
  0.000000  0.000000  0.000000

  0.000007  -0.000023  0.000000
  -0.000023  0.000069  0.000000
  0.000000  0.000000  0.000000

  0.000134  -0.000093  0.000000
  -0.000093  0.000062  0.000000
  0.000000  0.000000  0.000000

  0.000001  -0.000006  0.000000
  -0.000006  0.000039  0.000000
  0.000000  0.000000  0.000000

  0.000090  -0.000088  0.000000
  -0.000088  0.000082  0.000000
  0.000000  0.000000  0.000000

  0.000233  -0.000028  0.000000
  -0.000028  0.000001  0.000000
  0.000000  0.000000  0.000000

  0.000023  -0.000047  0.000000
  -0.000047  0.000088  0.000000
  0.000000  0.000000  0.000000

  0.000177  -0.000085  0.000000
  -0.000085  0.000038  0.000000
  0.000000  0.000000  0.000000

  -0.000000  -0.000001  0.000000
  -0.000001  0.000022  0.000000
  0.000000  0.000000  0.000000

  0.000070  -0.000080  0.000000
  -0.000080  0.000089  0.000000
  0.000000  0.000000  0.000000

  0.000226  -0.000046  0.000000
  -0.000046  0.000007  0.000000
  0.000000  0.000000  0.000000

  0.000013  -0.000034  0.000000
  -0.000034  0.000080  0.000000
  0.000000  0.000000  0.000000

  0.000156  -0.000091  0.000000
  -0.000091  0.000050  0.000000
  0.000000  0.000000  0.000000

  0.000002  -0.000013  0.000000
  -0.000013  0.000055  0.000000
  0.000000  0.000000  0.000000

  0.000110  -0.000091  0.000000
  -0.000091  0.000073  0.000000
  0.000000  0.000000  0.000000

  0.000239  -0.000010  0.000000
  -0.000010  -0.000002  0.000000
  0.000000  0.000000  0.000000

  0.000035  -0.000059  0.000000
  -0.000059  0.000092  0.000000
  0.000000  0.000000  0.000000

  0.000198  -0.000075  0.000000
  -0.000075  0.000026  0.000000
  0.000000  0.000000  0.000000

  -0.000000  -0.000000  0.000000
  -0.000000  0.000016  0.000000
  0.000000  0.000000  0.000000

  0.000061  -0.000076  0.000000
  -0.000076  0.000091  0.000000
  0.000000  0.000000  0.000000

  0.000221  -0.000054  0.000000
  -0.000054  0.000011  0.000000
  0.000000  0.000000  0.000000

  0.000010  -0.000028  0.000000
  -0.000028  0.000075  0.000000
  0.000000  0.000000  0.000000

  0.000145  -0.000093  0.000000
  -0.000093  0.000057  0.000000
  0.000000  0.000000  0.000000

  0.000001  -0.000009  0.000000
  -0.000009  0.000047  0.000000
  0.000000  0.000000  0.000000

  0.000101  -0.000091  0.000000
  -0.000091  0.000078  0.000000
  0.000000  0.000000  0.000000

  0.000236  -0.000019  0.000000
  -0.000019  -0.000001  0.000000
  0.000000  0.000000  0.000000

  0.000029  -0.000053  0.000000
  -0.000053  0.000091  0.000000
  0.000000  0.000000  0.000000

  0.000188  -0.000081  0.000000
  -0.000081  0.000032  0.000000
  0.000000  0.000000  0.000000

  0.000000  -0.000003  0.000000
  -0.000003  0.000030  0.000000
  0.000000  0.000000  0.000000

  0.000079  -0.000084  0.000000
  -0.000084  0.000086  0.000000
  0.000000  0.000000  0.000000

  0.000231  -0.000038  0.000000
  -0.000038  0.000003  0.000000
  0.000000  0.000000  0.000000

  0.000018  -0.000040  0.000000
  -0.000040  0.000085  0.000000
  0.000000  0.000000  0.000000

  0.000167  -0.000088  0.000000
  -0.000088  0.000044  0.000000
  0.000000  0.000000  0.000000

  0.000004  -0.000018  0.000000
  -0.000018  0.000063  0.000000
  0.000000  0.000000  0.000000

  0.000043  -0.000065  0.000000
  -0.000065  0.000093  0.000000
  0.000000  0.000000  0.000000

  0.000123  -0.000094  0.000000
  -0.000094  0.000068  0.000000
  0.000000  0.000000  0.000000

  0.000205  -0.000068  0.000000
  -0.000068  0.000021  0.000000
  0.000000  0.000000  0.000000

  -0.000000  -0.000000  0.000000
  -0.000000  0.000014  0.000000
  0.000000  0.000000  0.000000

  0.000056  -0.000073  0.000000
  -0.000073  0.000092  0.000000
  0.000000  0.000000  0.000000

  0.000217  -0.000058  0.000000
  -0.000058  0.000014  0.000000
  0.000000  0.000000  0.000000

  0.000008  -0.000026  0.000000
  -0.000026  0.000072  0.000000
  0.000000  0.000000  0.000000

  0.000139  -0.000094  0.000000
  -0.000094  0.000060  0.000000
  0.000000  0.000000  0.000000

  0.000001  -0.000008  0.000000
  -0.000008  0.000043  0.000000
  0.000000  0.000000  0.000000

  0.000096  -0.000089  0.000000
  -0.000089  0.000081  0.000000
  0.000000  0.000000  0.000000

  0.000235  -0.000023  0.000000
  -0.000023  -0.000000  0.000000
  0.000000  0.000000  0.000000

  0.000026  -0.000050  0.000000
  -0.000050  0.000089  0.000000
  0.000000  0.000000  0.000000

  0.000183  -0.000082  0.000000
  -0.000082  0.000035  0.000000
  0.000000  0.000000  0.000000

  -0.000000  -0.000002  0.000000
  -0.000002  0.000026  0.000000
  0.000000  0.000000  0.000000

  0.000074  -0.000082  0.000000
  -0.000082  0.000088  0.000000
  0.000000  0.000000  0.000000

  0.000229  -0.000042  0.000000
  -0.000042  0.000006  0.000000
  0.000000  0.000000  0.000000

  0.000016  -0.000037  0.000000
  -0.000037  0.000083  0.000000
  0.000000  0.000000  0.000000

  0.000162  -0.000090  0.000000
  -0.000090  0.000047  0.000000
  0.000000  0.000000  0.000000

  0.000004  -0.000016  0.000000
  -0.000016  0.000059  0.000000
  0.000000  0.000000  0.000000

  0.000118  -0.000093  0.000000
  -0.000093  0.000071  0.000000
  0.000000  0.000000  0.000000

  0.000245  -0.000006  0.000000
  -0.000006  -0.000002  0.000000
  0.000000  0.000000  0.000000

  0.000039  -0.000062  0.000000
  -0.000062  0.000092  0.000000
  0.000000  0.000000  0.000000

  0.000200  -0.000072  0.000000
  -0.000072  0.000023  0.000000
  0.000000  0.000000  0.000000

  -0.000000  -0.000001  0.000000
  -0.000001  0.000018  0.000000
  0.000000  0.000000  0.000000

  0.000065  -0.000078  0.000000
  -0.000078  0.000090  0.000000
  0.000000  0.000000  0.000000

  0.000224  -0.000050  0.000000
  -0.000050  0.000009  0.000000
  0.000000  0.000000  0.000000

  0.000011  -0.000031  0.000000
  -0.000031  0.000078  0.000000
  0.000000  0.000000  0.000000

  0.000150  -0.000092  0.000000
  -0.000092  0.000053  0.000000
  0.000000  0.000000  0.000000

  0.000002  -0.000011  0.000000
  -0.000011  0.000051  0.000000
  0.000000  0.000000  0.000000

  0.000106  -0.000092  0.000000
  -0.000092  0.000076  0.000000
  0.000000  0.000000  0.000000

  0.000238  -0.000014  0.000000
  -0.000014  -0.000002  0.000000
  0.000000  0.000000  0.000000

  0.000032  -0.000056  0.000000
  -0.000056  0.000092  0.000000
  0.000000  0.000000  0.000000

  0.000192  -0.000078  0.000000
  -0.000078  0.000029  0.000000
  0.000000  0.000000  0.000000

  0.000000  -0.000004  0.000000
  -0.000004  0.000034  0.000000
  0.000000  0.000000  0.000000

  0.000085  -0.000086  0.000000
  -0.000086  0.000085  0.000000
  0.000000  0.000000  0.000000

  0.000233  -0.000033  0.000000
  -0.000033  0.000003  0.000000
  0.000000  0.000000  0.000000

  0.000020  -0.000043  0.000000
  -0.000043  0.000086  0.000000
  0.000000  0.000000  0.000000

  0.000172  -0.000087  0.000000
  -0.000087  0.000041  0.000000
  0.000000  0.000000  0.000000

  0.000005  -0.000020  0.000000
  -0.000020  0.000066  0.000000
  0.000000  0.000000  0.000000

  0.000047  -0.000068  0.000000
  -0.000068  0.000093  0.000000
  0.000000  0.000000  0.000000

  0.000129  -0.000094  0.000000
  -0.000094  0.000065  0.000000
  0.000000  0.000000  0.000000

  0.000210  -0.000065  0.000000
  -0.000065  0.000018  0.000000
  0.000000  0.000000  0.000000

  -0.000001  0.000000  0.000000
  0.000000  0.000013  0.000000
  0.000000  0.000000  0.000000

  0.000053  -0.000071  0.000000
  -0.000071  0.000092  0.000000
  0.000000  0.000000  0.000000

  0.000215  -0.000061  0.000000
  -0.000061  0.000014  0.000000
  0.000000  0.000000  0.000000

  0.000007  -0.000024  0.000000
  -0.000024  0.000071  0.000000
  0.000000  0.000000  0.000000

  0.000136  -0.000094  0.000000
  -0.000094  0.000061  0.000000
  0.000000  0.000000  0.000000

  0.000001  -0.000007  0.000000
  -0.000007  0.000041  0.000000
  0.000000  0.000000  0.000000

  0.000092  -0.000088  0.000000
  -0.000088  0.000081  0.000000
  0.000000  0.000000  0.000000

  0.000234  -0.000026  0.000000
  -0.000026  0.000000  0.000000
  0.000000  0.000000  0.000000

  0.000024  -0.000048  0.000000
  -0.000048  0.000088  0.000000
  0.000000  0.000000  0.000000

  0.000180  -0.000084  0.000000
  -0.000084  0.000036  0.000000
  0.000000  0.000000  0.000000

  -0.000000  -0.000002  0.000000
  -0.000002  0.000024  0.000000
  0.000000  0.000000  0.000000

  0.000072  -0.000081  0.000000
  -0.000081  0.000088  0.000000
  0.000000  0.000000  0.000000

  0.000228  -0.000044  0.000000
  -0.000044  0.000006  0.000000
  0.000000  0.000000  0.000000

  0.000014  -0.000036  0.000000
  -0.000036  0.000082  0.000000
  0.000000  0.000000  0.000000

  0.000158  -0.000090  0.000000
  -0.000090  0.000049  0.000000
  0.000000  0.000000  0.000000

  0.000003  -0.000014  0.000000
  -0.000014  0.000057  0.000000
  0.000000  0.000000  0.000000

  0.000114  -0.000092  0.000000
  -0.000092  0.000072  0.000000
  0.000000  0.000000  0.000000

  0.000241  -0.000007  0.000000
  -0.000007  -0.000002  0.000000
  0.000000  0.000000  0.000000

  0.000037  -0.000060  0.000000
  -0.000060  0.000092  0.000000
  0.000000  0.000000  0.000000

  0.000200  -0.000074  0.000000
  -0.000074  0.000025  0.000000
  0.000000  0.000000  0.000000

  -0.000000  -0.000000  0.000000
  -0.000000  0.000017  0.000000
  0.000000  0.000000  0.000000

  0.000063  -0.000077  0.000000
  -0.000077  0.000090  0.000000
  0.000000  0.000000  0.000000

  0.000222  -0.000052  0.000000
  -0.000052  0.000009  0.000000
  0.000000  0.000000  0.000000

  0.000011  -0.000030  0.000000
  -0.000030  0.000077  0.000000
  0.000000  0.000000  0.000000

  0.000148  -0.000093  0.000000
  -0.000093  0.000055  0.000000
  0.000000  0.000000  0.000000

  0.000002  -0.000010  0.000000
  -0.000010  0.000049  0.000000
  0.000000  0.000000  0.000000

  0.000104  -0.000091  0.000000
  -0.000091  0.000077  0.000000
  0.000000  0.000000  0.000000

  0.000236  -0.000017  0.000000
  -0.000017  -0.000001  0.000000
  0.000000  0.000000  0.000000

  0.000031  -0.000054  0.000000
  -0.000054  0.000091  0.000000
  0.000000  0.000000  0.000000

  0.000190  -0.000079  0.000000
  -0.000079  0.000030  0.000000
  0.000000  0.000000  0.000000

  0.000000  -0.000004  0.000000
  -0.000004  0.000032  0.000000
  0.000000  0.000000  0.000000

  0.000082  -0.000085  0.000000
  -0.000085  0.000085  0.000000
  0.000000  0.000000  0.000000

  0.000232  -0.000035  0.000000
  -0.000035  0.000004  0.000000
  0.000000  0.000000  0.000000

  0.000019  -0.000042  0.000000
  -0.000042  0.000086  0.000000
  0.000000  0.000000  0.000000

  0.000170  -0.000088  0.000000
  -0.000088  0.000042  0.000000
  0.000000  0.000000  0.000000

  0.000005  -0.000019  0.000000
  -0.000019  0.000065  0.000000
  0.000000  0.000000  0.000000

  0.000045  -0.000066  0.000000
  -0.000066  0.000093  0.000000
  0.000000  0.000000  0.000000

  0.000126  -0.000093  0.000000
  -0.000093  0.000067  0.000000
  0.000000  0.000000  0.000000

  0.000208  -0.000067  0.000000
  -0.000067  0.000019  0.000000
  0.000000  0.000000  0.000000

  -0.000000  -0.000000  0.000000
  -0.000000  0.000015  0.000000
  0.000000  0.000000  0.000000

  0.000058  -0.000074  0.000000
  -0.000074  0.000092  0.000000
  0.000000  0.000000  0.000000

  0.000217  -0.000056  0.000000
  -0.000056  0.000013  0.000000
  0.000000  0.000000  0.000000

  0.000009  -0.000027  0.000000
  -0.000027  0.000074  0.000000
  0.000000  0.000000  0.000000

  0.000142  -0.000094  0.000000
  -0.000094  0.000058  0.000000
  0.000000  0.000000  0.000000

  0.000001  -0.000008  0.000000
  -0.000008  0.000045  0.000000
  0.000000  0.000000  0.000000

  0.000098  -0.000090  0.000000
  -0.000090  0.000080  0.000000
  0.000000  0.000000  0.000000

  0.000236  -0.000020  0.000000
  -0.000020  -0.000001  0.000000
  0.000000  0.000000  0.000000

  0.000028  -0.000051  0.000000
  -0.000051  0.000090  0.000000
  0.000000  0.000000  0.000000

  0.000186  -0.000082  0.000000
  -0.000082  0.000034  0.000000
  0.000000  0.000000  0.000000

  -0.000000  -0.000003  0.000000
  -0.000003  0.000028  0.000000
  0.000000  0.000000  0.000000

  0.000076  -0.000083  0.000000
  -0.000083  0.000087  0.000000
  0.000000  0.000000  0.000000

  0.000229  -0.000040  0.000000
  -0.000040  0.000004  0.000000
  0.000000  0.000000  0.000000

  0.000017  -0.000039  0.000000
  -0.000039  0.000084  0.000000
  0.000000  0.000000  0.000000

  0.000165  -0.000089  0.000000
  -0.000089  0.000045  0.000000
  0.000000  0.000000  0.000000

  0.000004  -0.000017  0.000000
  -0.000017  0.000061  0.000000
  0.000000  0.000000  0.000000

  0.000121  -0.000093  0.000000
  -0.000093  0.000070  0.000000
  0.000000  0.000000  0.000000

  0.000253  -0.000008  0.000000
  -0.000008  -0.000001  0.000000
  0.000000  0.000000  0.000000

  0.000041  -0.000063  0.000000
  -0.000063  0.000093  0.000000
  0.000000  0.000000  0.000000

  0.000203  -0.000070  0.000000
  -0.000070  0.000022  0.000000
  0.000000  0.000000  0.000000

  -0.000000  -0.000001  0.000000
  -0.000001  0.000020  0.000000
  0.000000  0.000000  0.000000

  0.000068  -0.000079  0.000000
  -0.000079  0.000090  0.000000
  0.000000  0.000000  0.000000

  0.000226  -0.000048  0.000000
  -0.000048  0.000008  0.000000
  0.000000  0.000000  0.000000

  0.000012  -0.000033  0.000000
  -0.000033  0.000079  0.000000
  0.000000  0.000000  0.000000

  0.000153  -0.000092  0.000000
  -0.000092  0.000052  0.000000
  0.000000  0.000000  0.000000

  0.000002  -0.000012  0.000000
  -0.000012  0.000053  0.000000
  0.000000  0.000000  0.000000

  0.000108  -0.000092  0.000000
  -0.000092  0.000075  0.000000
  0.000000  0.000000  0.000000

  0.000239  -0.000012  0.000000
  -0.000012  -0.000001  0.000000
  0.000000  0.000000  0.000000

  0.000034  -0.000057  0.000000
  -0.000057  0.000092  0.000000
  0.000000  0.000000  0.000000

  0.000195  -0.000076  0.000000
  -0.000076  0.000028  0.000000
  0.000000  0.000000  0.000000

  0.000000  -0.000005  0.000000
  -0.000005  0.000036  0.000000
  0.000000  0.000000  0.000000

  0.000087  -0.000087  0.000000
  -0.000087  0.000083  0.000000
  0.000000  0.000000  0.000000

  0.000233  -0.000031  0.000000
  -0.000031  0.000002  0.000000
  0.000000  0.000000  0.000000

  0.000022  -0.000045  0.000000
  -0.000045  0.000087  0.000000
  0.000000  0.000000  0.000000

  0.000174  -0.000086  0.000000
  -0.000086  0.000040  0.000000
  0.000000  0.000000  0.000000

  0.000006  -0.000022  0.000000
  -0.000022  0.000068  0.000000
  0.000000  0.000000  0.000000

  0.000049  -0.000069  0.000000
  -0.000069  0.000093  0.000000
  0.000000  0.000000  0.000000

  0.000131  -0.000094  0.000000
  -0.000094  0.000064  0.000000
  0.000000  0.000000  0.000000

  0.000212  -0.000064  0.000000
  -0.000064  0.000017  0.000000
  0.000000  0.000000  0.000000

  -0.000003  0.000002  0.000000
  0.000002  0.000010  0.000000
  0.000000  0.000000  0.000000

  0.000053  -0.000071  0.000000
  -0.000071  0.000092  0.000000
  0.000000  0.000000  0.000000

  0.000215  -0.000061  0.000000
  -0.000061  0.000016  0.000000
  0.000000  0.000000  0.000000

  0.000007  -0.000024  0.000000
  -0.000024  0.000070  0.000000
  0.000000  0.000000  0.000000

  0.000135  -0.000093  0.000000
  -0.000093  0.000062  0.000000
  0.000000  0.000000  0.000000

  0.000000  -0.000006  0.000000
  -0.000006  0.000040  0.000000
  0.000000  0.000000  0.000000

  0.000091  -0.000088  0.000000
  -0.000088  0.000083  0.000000
  0.000000  0.000000  0.000000

  0.000234  -0.000027  0.000000
  -0.000027  0.000001  0.000000
  0.000000  0.000000  0.000000

  0.000024  -0.000047  0.000000
  -0.000047  0.000089  0.000000
  0.000000  0.000000  0.000000

  0.000179  -0.000085  0.000000
  -0.000085  0.000037  0.000000
  0.000000  0.000000  0.000000

  -0.000000  -0.000002  0.000000
  -0.000002  0.000023  0.000000
  0.000000  0.000000  0.000000

  0.000071  -0.000081  0.000000
  -0.000081  0.000088  0.000000
  0.000000  0.000000  0.000000

  0.000226  -0.000045  0.000000
  -0.000045  0.000006  0.000000
  0.000000  0.000000  0.000000

  0.000014  -0.000035  0.000000
  -0.000035  0.000081  0.000000
  0.000000  0.000000  0.000000

  0.000157  -0.000090  0.000000
  -0.000090  0.000050  0.000000
  0.000000  0.000000  0.000000

  0.000003  -0.000014  0.000000
  -0.000014  0.000056  0.000000
  0.000000  0.000000  0.000000

  0.000112  -0.000092  0.000000
  -0.000092  0.000073  0.000000
  0.000000  0.000000  0.000000

  0.000241  -0.000008  0.000000
  -0.000008  -0.000002  0.000000
  0.000000  0.000000  0.000000

  0.000037  -0.000060  0.000000
  -0.000060  0.000092  0.000000
  0.000000  0.000000  0.000000

  0.000198  -0.000074  0.000000
  -0.000074  0.000025  0.000000
  0.000000  0.000000  0.000000

  -0.000000  -0.000000  0.000000
  -0.000000  0.000016  0.000000
  0.000000  0.000000  0.000000

  0.000061  -0.000076  0.000000
  -0.000076  0.000091  0.000000
  0.000000  0.000000  0.000000

  0.000221  -0.000054  0.000000
  -0.000054  0.000010  0.000000
  0.000000  0.000000  0.000000

  0.000010  -0.000029  0.000000
  -0.000029  0.000076  0.000000
  0.000000  0.000000  0.000000

  0.000146  -0.000093  0.000000
  -0.000093  0.000055  0.000000
  0.000000  0.000000  0.000000

  0.000001  -0.000010  0.000000
  -0.000010  0.000048  0.000000
  0.000000  0.000000  0.000000

  0.000102  -0.000091  0.000000
  -0.000091  0.000078  0.000000
  0.000000  0.000000  0.000000

  0.000236  -0.000017  0.000000
  -0.000017  -0.000000  0.000000
  0.000000  0.000000  0.000000

  0.000030  -0.000053  0.000000
  -0.000053  0.000091  0.000000
  0.000000  0.000000  0.000000

  0.000189  -0.000080  0.000000
  -0.000080  0.000032  0.000000
  0.000000  0.000000  0.000000

  0.000000  -0.000003  0.000000
  -0.000003  0.000031  0.000000
  0.000000  0.000000  0.000000

  0.000081  -0.000085  0.000000
  -0.000085  0.000086  0.000000
  0.000000  0.000000  0.000000

  0.000232  -0.000036  0.000000
  -0.000036  0.000003  0.000000
  0.000000  0.000000  0.000000

  0.000019  -0.000041  0.000000
  -0.000041  0.000085  0.000000
  0.000000  0.000000  0.000000

  0.000168  -0.000088  0.000000
  -0.000088  0.000044  0.000000
  0.000000  0.000000  0.000000

  0.000005  -0.000018  0.000000
  -0.000018  0.000063  0.000000
  0.000000  0.000000  0.000000

  0.000044  -0.000065  0.000000
  -0.000065  0.000092  0.000000
  0.000000  0.000000  0.000000

  0.000124  -0.000094  0.000000
  -0.000094  0.000068  0.000000
  0.000000  0.000000  0.000000

  0.000206  -0.000069  0.000000
  -0.000069  0.000020  0.000000
  0.000000  0.000000  0.000000

  -0.000001  -0.000000  0.000000
  -0.000000  0.000014  0.000000
  0.000000  0.000000  0.000000

  0.000056  -0.000073  0.000000
  -0.000073  0.000092  0.000000
  0.000000  0.000000  0.000000

  0.000217  -0.000057  0.000000
  -0.000057  0.000013  0.000000
  0.000000  0.000000  0.000000

  0.000009  -0.000027  0.000000
  -0.000027  0.000073  0.000000
  0.000000  0.000000  0.000000

  0.000142  -0.000093  0.000000
  -0.000093  0.000059  0.000000
  0.000000  0.000000  0.000000

  0.000001  -0.000008  0.000000
  -0.000008  0.000044  0.000000
  0.000000  0.000000  0.000000

  0.000096  -0.000090  0.000000
  -0.000090  0.000080  0.000000
  0.000000  0.000000  0.000000

  0.000235  -0.000023  0.000000
  -0.000023  0.000000  0.000000
  0.000000  0.000000  0.000000

  0.000026  -0.000050  0.000000
  -0.000050  0.000090  0.000000
  0.000000  0.000000  0.000000

  0.000183  -0.000082  0.000000
  -0.000082  0.000034  0.000000
  0.000000  0.000000  0.000000

  -0.000000  -0.000002  0.000000
  -0.000002  0.000027  0.000000
  0.000000  0.000000  0.000000

  0.000075  -0.000083  0.000000
  -0.000083  0.000087  0.000000
  0.000000  0.000000  0.000000

  0.000229  -0.000040  0.000000
  -0.000040  0.000005  0.000000
  0.000000  0.000000  0.000000

  0.000015  -0.000038  0.000000
  -0.000038  0.000083  0.000000
  0.000000  0.000000  0.000000

  0.000163  -0.000090  0.000000
  -0.000090  0.000047  0.000000
  0.000000  0.000000  0.000000

  0.000003  -0.000016  0.000000
  -0.000016  0.000060  0.000000
  0.000000  0.000000  0.000000

  0.000118  -0.000093  0.000000
  -0.000093  0.000070  0.000000
  0.000000  0.000000  0.000000

  0.000249  -0.000007  0.000000
  -0.000007  -0.000001  0.000000
  0.000000  0.000000  0.000000

  0.000041  -0.000063  0.000000
  -0.000063  0.000093  0.000000
  0.000000  0.000000  0.000000

  0.000202  -0.000071  0.000000
  -0.000071  0.000023  0.000000
  0.000000  0.000000  0.000000

  -0.000000  -0.000001  0.000000
  -0.000001  0.000019  0.000000
  0.000000  0.000000  0.000000

  0.000065  -0.000079  0.000000
  -0.000079  0.000090  0.000000
  0.000000  0.000000  0.000000

  0.000224  -0.000050  0.000000
  -0.000050  0.000008  0.000000
  0.000000  0.000000  0.000000

  0.000012  -0.000032  0.000000
  -0.000032  0.000079  0.000000
  0.000000  0.000000  0.000000

  0.000152  -0.000092  0.000000
  -0.000092  0.000053  0.000000
  0.000000  0.000000  0.000000

  0.000002  -0.000012  0.000000
  -0.000012  0.000052  0.000000
  0.000000  0.000000  0.000000

  0.000107  -0.000091  0.000000
  -0.000091  0.000075  0.000000
  0.000000  0.000000  0.000000

  0.000238  -0.000012  0.000000
  -0.000012  -0.000002  0.000000
  0.000000  0.000000  0.000000

  0.000033  -0.000057  0.000000
  -0.000057  0.000091  0.000000
  0.000000  0.000000  0.000000

  0.000193  -0.000077  0.000000
  -0.000077  0.000029  0.000000
  0.000000  0.000000  0.000000

  0.000000  -0.000005  0.000000
  -0.000005  0.000035  0.000000
  0.000000  0.000000  0.000000

  0.000085  -0.000087  0.000000
  -0.000087  0.000084  0.000000
  0.000000  0.000000  0.000000

  0.000233  -0.000031  0.000000
  -0.000031  0.000002  0.000000
  0.000000  0.000000  0.000000

  0.000021  -0.000044  0.000000
  -0.000044  0.000087  0.000000
  0.000000  0.000000  0.000000

  0.000173  -0.000086  0.000000
  -0.000086  0.000040  0.000000
  0.000000  0.000000  0.000000

  0.000006  -0.000021  0.000000
  -0.000021  0.000067  0.000000
  0.000000  0.000000  0.000000

  0.000049  -0.000068  0.000000
  -0.000068  0.000093  0.000000
  0.000000  0.000000  0.000000

  0.000130  -0.000094  0.000000
  -0.000094  0.000065  0.000000
  0.000000  0.000000  0.000000

  0.000210  -0.000065  0.000000
  -0.000065  0.000017  0.000000
  0.000000  0.000000  0.000000

  -0.000001  0.000000  0.000000
  0.000000  0.000013  0.000000
  0.000000  0.000000  0.000000

  0.000054  -0.000072  0.000000
  -0.000072  0.000092  0.000000
  0.000000  0.000000  0.000000

  0.000217  -0.000059  0.000000
  -0.000059  0.000013  0.000000
  0.000000  0.000000  0.000000

  0.000008  -0.000025  0.000000
  -0.000025  0.000072  0.000000
  0.000000  0.000000  0.000000

  0.000138  -0.000093  0.000000
  -0.000093  0.000060  0.000000
  0.000000  0.000000  0.000000

  0.000001  -0.000007  0.000000
  -0.000007  0.000042  0.000000
  0.000000  0.000000  0.000000

  0.000093  -0.000089  0.000000
  -0.000089  0.000081  0.000000
  0.000000  0.000000  0.000000

  0.000236  -0.000025  0.000000
  -0.000025  0.000000  0.000000
  0.000000  0.000000  0.000000

  0.000025  -0.000049  0.000000
  -0.000049  0.000089  0.000000
  0.000000  0.000000  0.000000

  0.000181  -0.000084  0.000000
  -0.000084  0.000036  0.000000
  0.000000  0.000000  0.000000

  -0.000000  -0.000002  0.000000
  -0.000002  0.000025  0.000000
  0.000000  0.000000  0.000000

  0.000073  -0.000081  0.000000
  -0.000081  0.000087  0.000000
  0.000000  0.000000  0.000000

  0.000228  -0.000043  0.000000
  -0.000043  0.000005  0.000000
  0.000000  0.000000  0.000000

  0.000015  -0.000036  0.000000
  -0.000036  0.000083  0.000000
  0.000000  0.000000  0.000000

  0.000160  -0.000091  0.000000
  -0.000091  0.000049  0.000000
  0.000000  0.000000  0.000000

  0.000003  -0.000015  0.000000
  -0.000015  0.000058  0.000000
  0.000000  0.000000  0.000000

  0.000115  -0.000093  0.000000
  -0.000093  0.000072  0.000000
  0.000000  0.000000  0.000000

  0.000243  -0.000007  0.000000
  -0.000007  -0.000002  0.000000
  0.000000  0.000000  0.000000

  0.000039  -0.000061  0.000000
  -0.000061  0.000092  0.000000
  0.000000  0.000000  0.000000

  0.000200  -0.000072  0.000000
  -0.000072  0.000024  0.000000
  0.000000  0.000000  0.000000

  -0.000000  -0.000001  0.000000
  -0.000001  0.000018  0.000000
  0.000000  0.000000  0.000000

  0.000064  -0.000077  0.000000
  -0.000077  0.000091  0.000000
  0.000000  0.000000  0.000000

  0.000223  -0.000052  0.000000
  -0.000052  0.000010  0.000000
  0.000000  0.000000  0.000000

  0.000011  -0.000031  0.000000
  -0.000031  0.000078  0.000000
  0.000000  0.000000  0.000000

  0.000149  -0.000092  0.000000
  -0.000092  0.000054  0.000000
  0.000000  0.000000  0.000000

  0.000002  -0.000011  0.000000
  -0.000011  0.000050  0.000000
  0.000000  0.000000  0.000000

  0.000104  -0.000091  0.000000
  -0.000091  0.000077  0.000000
  0.000000  0.000000  0.000000

  0.000238  -0.000015  0.000000
  -0.000015  -0.000001  0.000000
  0.000000  0.000000  0.000000

  0.000031  -0.000055  0.000000
  -0.000055  0.000091  0.000000
  0.000000  0.000000  0.000000

  0.000191  -0.000079  0.000000
  -0.000079  0.000030  0.000000
  0.000000  0.000000  0.000000

  0.000000  -0.000004  0.000000
  -0.000004  0.000033  0.000000
  0.000000  0.000000  0.000000

  0.000083  -0.000086  0.000000
  -0.000086  0.000085  0.000000
  0.000000  0.000000  0.000000

  0.000232  -0.000034  0.000000
  -0.000034  0.000002  0.000000
  0.000000  0.000000  0.000000

  0.000020  -0.000043  0.000000
  -0.000043  0.000086  0.000000
  0.000000  0.000000  0.000000

  0.000170  -0.000087  0.000000
  -0.000087  0.000042  0.000000
  0.000000  0.000000  0.000000

  0.000005  -0.000020  0.000000
  -0.000020  0.000065  0.000000
  0.000000  0.000000  0.000000

  0.000046  -0.000067  0.000000
  -0.000067  0.000092  0.000000
  0.000000  0.000000  0.000000

  0.000126  -0.000094  0.000000
  -0.000094  0.000066  0.000000
  0.000000  0.000000  0.000000

  0.000209  -0.000067  0.000000
  -0.000067  0.000019  0.000000
  0.000000  0.000000  0.000000

  -0.000000  -0.000000  0.000000
  -0.000000  0.000015  0.000000
  0.000000  0.000000  0.000000

  0.000059  -0.000075  0.000000
  -0.000075  0.000091  0.000000
  0.000000  0.000000  0.000000

  0.000219  -0.000056  0.000000
  -0.000056  0.000012  0.000000
  0.000000  0.000000  0.000000

  0.000009  -0.000028  0.000000
  -0.000028  0.000074  0.000000
  0.000000  0.000000  0.000000

  0.000144  -0.000093  0.000000
  -0.000093  0.000057  0.000000
  0.000000  0.000000  0.000000

  0.000001  -0.000009  0.000000
  -0.000009  0.000046  0.000000
  0.000000  0.000000  0.000000

  0.000099  -0.000091  0.000000
  -0.000091  0.000079  0.000000
  0.000000  0.000000  0.000000

  0.000234  -0.000020  0.000000
  -0.000020  -0.000000  0.000000
  0.000000  0.000000  0.000000

  0.000028  -0.000052  0.000000
  -0.000052  0.000090  0.000000
  0.000000  0.000000  0.000000

  0.000186  -0.000082  0.000000
  -0.000082  0.000033  0.000000
  0.000000  0.000000  0.000000

  -0.000000  -0.000003  0.000000
  -0.000003  0.000029  0.000000
  0.000000  0.000000  0.000000

  0.000078  -0.000084  0.000000
  -0.000084  0.000087  0.000000
  0.000000  0.000000  0.000000

  0.000231  -0.000038  0.000000
  -0.000038  0.000004  0.000000
  0.000000  0.000000  0.000000

  0.000017  -0.000040  0.000000
  -0.000040  0.000084  0.000000
  0.000000  0.000000  0.000000

  0.000166  -0.000089  0.000000
  -0.000089  0.000046  0.000000
  0.000000  0.000000  0.000000

  0.000004  -0.000017  0.000000
  -0.000017  0.000062  0.000000
  0.000000  0.000000  0.000000

  0.000121  -0.000094  0.000000
  -0.000094  0.000069  0.000000
  0.000000  0.000000  0.000000

  0.000260  -0.000011  0.000000
  -0.000011  0.000000  0.000000
  0.000000  0.000000  0.000000

  0.000042  -0.000064  0.000000
  -0.000064  0.000093  0.000000
  0.000000  0.000000  0.000000

  0.000204  -0.000070  0.000000
  -0.000070  0.000022  0.000000
  0.000000  0.000000  0.000000

  -0.000000  -0.000001  0.000000
  -0.000001  0.000021  0.000000
  0.000000  0.000000  0.000000

  0.000068  -0.000079  0.000000
  -0.000079  0.000089  0.000000
  0.000000  0.000000  0.000000

  0.000225  -0.000047  0.000000
  -0.000047  0.000007  0.000000
  0.000000  0.000000  0.000000

  0.000013  -0.000034  0.000000
  -0.000034  0.000080  0.000000
  0.000000  0.000000  0.000000

  0.000155  -0.000091  0.000000
  -0.000091  0.000051  0.000000
  0.000000  0.000000  0.000000

  0.000002  -0.000013  0.000000
  -0.000013  0.000054  0.000000
  0.000000  0.000000  0.000000

  0.000111  -0.000092  0.000000
  -0.000092  0.000073  0.000000
  0.000000  0.000000  0.000000

  0.000239  -0.000010  0.000000
  -0.000010  -0.000001  0.000000
  0.000000  0.000000  0.000000

  0.000035  -0.000058  0.000000
  -0.000058  0.000092  0.000000
  0.000000  0.000000  0.000000

  0.000195  -0.000076  0.000000
  -0.000076  0.000027  0.000000
  0.000000  0.000000  0.000000

  0.000000  -0.000005  0.000000
  -0.000005  0.000038  0.000000
  0.000000  0.000000  0.000000

  0.000089  -0.000087  0.000000
  -0.000087  0.000084  0.000000
  0.000000  0.000000  0.000000

  0.000234  -0.000029  0.000000
  -0.000029  0.000001  0.000000
  0.000000  0.000000  0.000000

  0.000022  -0.000046  0.000000
  -0.000046  0.000088  0.000000
  0.000000  0.000000  0.000000

  0.000177  -0.000085  0.000000
  -0.000085  0.000039  0.000000
  0.000000  0.000000  0.000000

  0.000006  -0.000022  0.000000
  -0.000022  0.000068  0.000000
  0.000000  0.000000  0.000000

  0.000050  -0.000070  0.000000
  -0.000070  0.000092  0.000000
  0.000000  0.000000  0.000000

  0.000132  -0.000094  0.000000
  -0.000094  0.000064  0.000000
  0.000000  0.000000  0.000000

  0.000212  -0.000063  0.000000
  -0.000063  0.000016  0.000000
  0.000000  0.000000  0.000000

  0.000011  0.000009  0.000000
  0.000009  -0.000003  0.000000
  0.000000  0.000000  0.000000

  -0.000012  0.000008  0.000000
  0.000008  0.000002  0.000000
  0.000000  0.000000  0.000000

  0.000239  -0.000012  0.000000
  -0.000012  0.000000  0.000000
  0.000000  0.000000  0.000000

  -0.000272  0.000005  0.000000
  0.000005  0.000000  0.000000
  0.000000  0.000000  0.000000

  -0.000220  0.000094  0.000000
  0.000094  -0.000043  0.000000
  0.000000  0.000000  0.000000

  -0.000221  0.000093  0.000000
  0.000093  -0.000041  0.000000
  0.000000  0.000000  0.000000

  -0.000091  0.000095  0.000000
  0.000095  -0.000104  0.000000
  0.000000  0.000000  0.000000

  -0.000091  0.000096  0.000000
  0.000096  -0.000102  0.000000
  0.000000  0.000000  0.000000

  -0.000266  0.000059  0.000000
  0.000059  -0.000015  0.000000
  0.000000  0.000000  0.000000

  -0.000266  0.000058  0.000000
  0.000058  -0.000011  0.000000
  0.000000  0.000000  0.000000

  -0.000040  0.000065  0.000000
  0.000065  -0.000107  0.000000
  0.000000  0.000000  0.000000

  -0.000041  0.000067  0.000000
  0.000067  -0.000105  0.000000
  0.000000  0.000000  0.000000

  -0.000212  0.000098  0.000000
  0.000098  -0.000048  0.000000
  0.000000  0.000000  0.000000

  -0.000213  0.000096  0.000000
  0.000096  -0.000044  0.000000
  0.000000  0.000000  0.000000

  -0.000010  0.000027  0.000000
  0.000027  -0.000081  0.000000
  0.000000  0.000000  0.000000

  -0.000010  0.000029  0.000000
  0.000029  -0.000079  0.000000
  0.000000  0.000000  0.000000

  -0.000148  0.000109  0.000000
  0.000109  -0.000083  0.000000
  0.000000  0.000000  0.000000

  -0.000148  0.000111  0.000000
  0.000111  -0.000079  0.000000
  0.000000  0.000000  0.000000

  -0.000001  0.000004  0.000000
  0.000004  -0.000032  0.000000
  0.000000  0.000000  0.000000

  -0.000001  0.000007  0.000000
  0.000007  -0.000031  0.000000
  0.000000  0.000000  0.000000

  -0.000204  0.000099  0.000000
  0.000099  -0.000051  0.000000
  0.000000  0.000000  0.000000

  -0.000207  0.000097  0.000000
  0.000097  -0.000045  0.000000
  0.000000  0.000000  0.000000

  -0.000078  0.000090  0.000000
  0.000090  -0.000107  0.000000
  0.000000  0.000000  0.000000

  -0.000078  0.000091  0.000000
  0.000091  -0.000104  0.000000
  0.000000  0.000000  0.000000

  -0.000257  0.000070  0.000000
  0.000070  -0.000021  0.000000
  0.000000  0.000000  0.000000

  -0.000257  0.000070  0.000000
  0.000070  -0.000016  0.000000
  0.000000  0.000000  0.000000

  -0.000031  0.000056  0.000000
  0.000056  -0.000105  0.000000
  0.000000  0.000000  0.000000

  -0.000030  0.000058  0.000000
  0.000058  -0.000103  0.000000
  0.000000  0.000000  0.000000

  -0.000198  0.000102  0.000000
  0.000102  -0.000055  0.000000
  0.000000  0.000000  0.000000

  -0.000199  0.000102  0.000000
  0.000102  -0.000053  0.000000
  0.000000  0.000000  0.000000

  -0.000007  0.000020  0.000000
  0.000020  -0.000069  0.000000
  0.000000  0.000000  0.000000

  -0.000007  0.000021  0.000000
  0.000021  -0.000069  0.000000
  0.000000  0.000000  0.000000

  -0.000131  0.000106  0.000000
  0.000106  -0.000089  0.000000
  0.000000  0.000000  0.000000

  -0.000132  0.000107  0.000000
  0.000107  -0.000086  0.000000
  0.000000  0.000000  0.000000

  -0.000000  0.000002  0.000000
  0.000002  -0.000019  0.000000
  0.000000  0.000000  0.000000

  -0.000001  0.000004  0.000000
  0.000004  -0.000019  0.000000
  0.000000  0.000000  0.000000

  -0.000192  0.000107  0.000000
  0.000107  -0.000062  0.000000
  0.000000  0.000000  0.000000

  -0.000193  0.000106  0.000000
  0.000106  -0.000057  0.000000
  0.000000  0.000000  0.000000

  -0.000064  0.000082  0.000000
  0.000082  -0.000110  0.000000
  0.000000  0.000000  0.000000

  -0.000064  0.000084  0.000000
  0.000084  -0.000107  0.000000
  0.000000  0.000000  0.000000

  -0.000244  0.000080  0.000000
  0.000080  -0.000028  0.000000
  0.000000  0.000000  0.000000

  -0.000244  0.000080  0.000000
  0.000080  -0.000026  0.000000
  0.000000  0.000000  0.000000

  -0.000024  0.000047  0.000000
  0.000047  -0.000099  0.000000
  0.000000  0.000000  0.000000

  -0.000023  0.000048  0.000000
  0.000048  -0.000098  0.000000
  0.000000  0.000000  0.000000

  -0.000182  0.000106  0.000000
  0.000106  -0.000064  0.000000
  0.000000  0.000000  0.000000

  -0.000183  0.000105  0.000000
  0.000105  -0.000063  0.000000
  0.000000  0.000000  0.000000

  -0.000004  0.000014  0.000000
  0.000014  -0.000058  0.000000
  0.000000  0.000000  0.000000

  -0.000004  0.000016  0.000000
  0.000016  -0.000058  0.000000
  0.000000  0.000000  0.000000

  -0.000116  0.000103  0.000000
  0.000103  -0.000095  0.000000
  0.000000  0.000000  0.000000

  -0.000115  0.000105  0.000000
  0.000105  -0.000093  0.000000
  0.000000  0.000000  0.000000

  -0.000000  0.000001  0.000000
  0.000001  -0.000006  0.000000
  0.000000  0.000000  0.000000

  0.000005  0.000006  0.000000
  0.000006  -0.000006  0.000000
  0.000000  0.000000  0.000000

  -0.000174  0.000109  0.000000
  0.000109  -0.000070  0.000000
  0.000000  0.000000  0.000000

  -0.000175  0.000108  0.000000
  0.000108  -0.000066  0.000000
  0.000000  0.000000  0.000000

  -0.000052  0.000074  0.000000
  0.000074  -0.000110  0.000000
  0.000000  0.000000  0.000000

  -0.000052  0.000077  0.000000
  0.000077  -0.000107  0.000000
  0.000000  0.000000  0.000000

  -0.000232  0.000089  0.000000
  0.000089  -0.000037  0.000000
  0.000000  0.000000  0.000000

  -0.000234  0.000084  0.000000
  0.000084  -0.000030  0.000000
  0.000000  0.000000  0.000000

  -0.000017  0.000038  0.000000
  0.000038  -0.000092  0.000000
  0.000000  0.000000  0.000000

  -0.000017  0.000040  0.000000
  0.000040  -0.000091  0.000000
  0.000000  0.000000  0.000000

  -0.000167  0.000110  0.000000
  0.000110  -0.000075  0.000000
  0.000000  0.000000  0.000000

  -0.000168  0.000109  0.000000
  0.000109  -0.000069  0.000000
  0.000000  0.000000  0.000000

  -0.000002  0.000009  0.000000
  0.000009  -0.000046  0.000000
  0.000000  0.000000  0.000000

  -0.000003  0.000011  0.000000
  0.000011  -0.000045  0.000000
  0.000000  0.000000  0.000000

  -0.000099  0.000099  0.000000
  0.000099  -0.000102  0.000000
  0.000000  0.000000  0.000000

  -0.000103  0.000100  0.000000
  0.000100  -0.000096  0.000000
  0.000000  0.000000  0.000000

  -0.000157  0.000109  0.000000
  0.000109  -0.000079  0.000000
  0.000000  0.000000  0.000000

  -0.000158  0.000109  0.000000
  0.000109  -0.000075  0.000000
  0.000000  0.000000  0.000000

  -0.000042  0.000065  0.000000
  0.000065  -0.000107  0.000000
  0.000000  0.000000  0.000000

  -0.000039  0.000065  0.000000
  0.000065  -0.000107  0.000000
  0.000000  0.000000  0.000000

  -0.000280  0.000032  0.000000
  0.000032  -0.000006  0.000000
  0.000000  0.000000  0.000000

  -0.000280  0.000029  0.000000
  0.000029  -0.000004  0.000000
  0.000000  0.000000  0.000000

  -0.000061  0.000080  0.000000
  0.000080  -0.000110  0.000000
  0.000000  0.000000  0.000000

  -0.000066  0.000082  0.000000
  0.000082  -0.000102  0.000000
  0.000000  0.000000  0.000000

  -0.000151  0.000107  0.000000
  0.000107  -0.000080  0.000000
  0.000000  0.000000  0.000000

  -0.000141  0.000108  0.000000
  0.000108  -0.000084  0.000000
  0.000000  0.000000  0.000000

  -0.000001  0.000005  0.000000
  0.000005  -0.000033  0.000000
  0.000000  0.000000  0.000000

  -0.000001  0.000006  0.000000
  0.000006  -0.000033  0.000000
  0.000000  0.000000  0.000000

  -0.000181  0.000105  0.000000
  0.000105  -0.000064  0.000000
  0.000000  0.000000  0.000000

  -0.000167  0.000092  0.000000
  0.000092  -0.000058  0.000000
  0.000000  0.000000  0.000000

  -0.000003  0.000013  0.000000
  0.000013  -0.000057  0.000000
  0.000000  0.000000  0.000000

  -0.000005  0.000016  0.000000
  0.000016  -0.000055  0.000000
  0.000000  0.000000  0.000000

  -0.000141  0.000108  0.000000
  0.000108  -0.000086  0.000000
  0.000000  0.000000  0.000000

  -0.000145  0.000108  0.000000
  0.000108  -0.000079  0.000000
  0.000000  0.000000  0.000000

  -0.000033  0.000056  0.000000
  0.000056  -0.000103  0.000000
  0.000000  0.000000  0.000000

  -0.000029  0.000055  0.000000
  0.000055  -0.000104  0.000000
  0.000000  0.000000  0.000000

  -0.000275  0.000044  0.000000
  0.000044  -0.000009  0.000000
  0.000000  0.000000  0.000000

  -0.000274  0.000046  0.000000
  0.000046  -0.000008  0.000000
  0.000000  0.000000  0.000000

  -0.000050  0.000072  0.000000
  0.000072  -0.000110  0.000000
  0.000000  0.000000  0.000000

  -0.000055  0.000075  0.000000
  0.000075  -0.000102  0.000000
  0.000000  0.000000  0.000000

  -0.000135  0.000106  0.000000
  0.000106  -0.000085  0.000000
  0.000000  0.000000  0.000000

  -0.000126  0.000103  0.000000
  0.000103  -0.000089  0.000000
  0.000000  0.000000  0.000000

  -0.000000  0.000002  0.000000
  0.000002  -0.000021  0.000000
  0.000000  0.000000  0.000000

  -0.000001  0.000004  0.000000
  0.000004  -0.000020  0.000000
  0.000000  0.000000  0.000000

  -0.000164  0.000106  0.000000
  0.000106  -0.000073  0.000000
  0.000000  0.000000  0.000000

  -0.000153  0.000097  0.000000
  0.000097  -0.000071  0.000000
  0.000000  0.000000  0.000000

  -0.000002  0.000008  0.000000
  0.000008  -0.000044  0.000000
  0.000000  0.000000  0.000000

  -0.000003  0.000010  0.000000
  0.000010  -0.000039  0.000000
  0.000000  0.000000  0.000000

  -0.000125  0.000105  0.000000
  0.000105  -0.000092  0.000000
  0.000000  0.000000  0.000000

  -0.000124  0.000106  0.000000
  0.000106  -0.000091  0.000000
  0.000000  0.000000  0.000000

  -0.000024  0.000048  0.000000
  0.000048  -0.000101  0.000000
  0.000000  0.000000  0.000000

  -0.000027  0.000050  0.000000
  0.000050  -0.000095  0.000000
  0.000000  0.000000  0.000000

  -0.000285  0.000019  0.000000
  0.000019  -0.000003  0.000000
  0.000000  0.000000  0.000000

  -0.000285  0.000019  0.000000
  0.000019  -0.000001  0.000000
  0.000000  0.000000  0.000000

  -0.000074  0.000088  0.000000
  0.000088  -0.000108  0.000000
  0.000000  0.000000  0.000000

  -0.000080  0.000089  0.000000
  0.000089  -0.000100  0.000000
  0.000000  0.000000  0.000000

  -0.000118  0.000103  0.000000
  0.000103  -0.000092  0.000000
  0.000000  0.000000  0.000000

  -0.000110  0.000101  0.000000
  0.000101  -0.000095  0.000000
  0.000000  0.000000  0.000000

  -0.000001  0.000000  0.000000
  0.000000  -0.000009  0.000000
  0.000000  0.000000  0.000000

  0.000000  0.000004  0.000000
  0.000004  -0.000008  0.000000
  0.000000  0.000000  0.000000

  -0.000192  0.000103  0.000000
  0.000103  -0.000059  0.000000
  0.000000  0.000000  0.000000

  -0.000198  0.000098  0.000000
  0.000098  -0.000051  0.000000
  0.000000  0.000000  0.000000

  -0.000006  0.000019  0.000000
  0.000019  -0.000069  0.000000
  0.000000  0.000000  0.000000

  -0.000007  0.000022  0.000000
  0.000022  -0.000066  0.000000
  0.000000  0.000000  0.000000

  -0.000108  0.000101  0.000000
  0.000101  -0.000098  0.000000
  0.000000  0.000000  0.000000

  -0.000113  0.000101  0.000000
  0.000101  -0.000090  0.000000
  0.000000  0.000000  0.000000

  -0.000017  0.000038  0.000000
  0.000038  -0.000093  0.000000
  0.000000  0.000000  0.000000

  -0.000020  0.000042  0.000000
  0.000042  -0.000089  0.000000
  0.000000  0.000000  0.000000

  -0.000211  0.000097  0.000000
  0.000097  -0.000046  0.000000
  0.000000  0.000000  0.000000

  -0.000194  0.000086  0.000000
  0.000086  -0.000044  0.000000
  0.000000  0.000000  0.000000

  -0.000010  0.000026  0.000000
  0.000026  -0.000078  0.000000
  0.000000  0.000000  0.000000

  -0.000011  0.000026  0.000000
  0.000026  -0.000070  0.000000
  0.000000  0.000000  0.000000

  -0.000102  0.000099  0.000000
  0.000099  -0.000100  0.000000
  0.000000  0.000000  0.000000

  -0.000100  0.000100  0.000000
  0.000100  -0.000100  0.000000
  0.000000  0.000000  0.000000

  -0.000277  0.000006  0.000000
  0.000006  -0.000002  0.000000
  0.000000  0.000000  0.000000

  -0.000275  0.000011  0.000000
  0.000011  0.000004  0.000000
  0.000000  0.000000  0.000000

  -0.000091  0.000094  0.000000
  0.000094  -0.000102  0.000000
  0.000000  0.000000  0.000000

  -0.000086  0.000085  0.000000
  0.000085  -0.000091  0.000000
  0.000000  0.000000  0.000000

  -0.000014  0.000033  0.000000
  0.000033  -0.000087  0.000000
  0.000000  0.000000  0.000000

  -0.000013  0.000034  0.000000
  0.000034  -0.000086  0.000000
  0.000000  0.000000  0.000000

  -0.000264  0.000056  0.000000
  0.000056  -0.000015  0.000000
  0.000000  0.000000  0.000000

  -0.000241  0.000048  0.000000
  0.000048  -0.000014  0.000000
  0.000000  0.000000  0.000000

  -0.000043  0.000067  0.000000
  0.000067  -0.000109  0.000000
  0.000000  0.000000  0.000000

  -0.000045  0.000068  0.000000
  0.000068  -0.000105  0.000000
  0.000000  0.000000  0.000000

  -0.000279  0.000036  0.000000
  0.000036  -0.000007  0.000000
  0.000000  0.000000  0.000000

  -0.000279  0.000034  0.000000
  0.000034  -0.000002  0.000000
  0.000000  0.000000  0.000000

  -0.000011  0.000029  0.000000
  0.000029  -0.000083  0.000000
  0.000000  0.000000  0.000000

  -0.000012  0.000031  0.000000
  0.000031  -0.000081  0.000000
  0.000000  0.000000  0.000000

  -0.000144  0.000108  0.000000
  0.000108  -0.000084  0.000000
  0.000000  0.000000  0.000000

  -0.000149  0.000106  0.000000
  0.000106  -0.000075  0.000000
  0.000000  0.000000  0.000000

  -0.000001  0.000005  0.000000
  0.000005  -0.000035  0.000000
  0.000000  0.000000  0.000000

  -0.000001  0.000008  0.000000
  0.000008  -0.000034  0.000000
  0.000000  0.000000  0.000000

  -0.000177  0.000106  0.000000
  0.000106  -0.000067  0.000000
  0.000000  0.000000  0.000000

  -0.000172  0.000108  0.000000
  0.000108  -0.000070  0.000000
  0.000000  0.000000  0.000000

  -0.000009  0.000025  0.000000
  0.000025  -0.000078  0.000000
  0.000000  0.000000  0.000000

  -0.000009  0.000028  0.000000
  0.000028  -0.000077  0.000000
  0.000000  0.000000  0.000000

  -0.000255  0.000067  0.000000
  0.000067  -0.000021  0.000000
  0.000000  0.000000  0.000000

  -0.000239  0.000058  0.000000
  0.000058  -0.000018  0.000000
  0.000000  0.000000  0.000000

  -0.000033  0.000058  0.000000
  0.000058  -0.000106  0.000000
  0.000000  0.000000  0.000000

  -0.000035  0.000059  0.000000
  0.000059  -0.000103  0.000000
  0.000000  0.000000  0.000000

  -0.000272  0.000048  0.000000
  0.000048  -0.000011  0.000000
  0.000000  0.000000  0.000000

  -0.000273  0.000047  0.000000
  0.000047  -0.000010  0.000000
  0.000000  0.000000  0.000000

  -0.000007  0.000022  0.000000
  0.000022  -0.000072  0.000000
  0.000000  0.000000  0.000000

  -0.000007  0.000023  0.000000
  0.000023  -0.000072  0.000000
  0.000000  0.000000  0.000000

  -0.000127  0.000106  0.000000
  0.000106  -0.000091  0.000000
  0.000000  0.000000  0.000000

  -0.000129  0.000100  0.000000
  0.000100  -0.000082  0.000000
  0.000000  0.000000  0.000000

  -0.000001  0.000002  0.000000
  0.000002  -0.000022  0.000000
  0.000000  0.000000  0.000000

  -0.000000  0.000004  0.000000
  0.000004  -0.000022  0.000000
  0.000000  0.000000  0.000000

  -0.000161  0.000107  0.000000
  0.000107  -0.000075  0.000000
  0.000000  0.000000  0.000000

  -0.000155  0.000109  0.000000
  0.000109  -0.000079  0.000000
  0.000000  0.000000  0.000000

  -0.000006  0.000019  0.000000
  0.000019  -0.000066  0.000000
  0.000000  0.000000  0.000000

  -0.000006  0.000020  0.000000
  0.000020  -0.000066  0.000000
  0.000000  0.000000  0.000000

  -0.000243  0.000077  0.000000
  0.000077  -0.000028  0.000000
  0.000000  0.000000  0.000000

  -0.000220  0.000068  0.000000
  0.000068  -0.000026  0.000000
  0.000000  0.000000  0.000000

  -0.000025  0.000049  0.000000
  0.000049  -0.000101  0.000000
  0.000000  0.000000  0.000000

  -0.000025  0.000051  0.000000
  0.000051  -0.000100  0.000000
  0.000000  0.000000  0.000000

  -0.000285  0.000023  0.000000
  0.000023  -0.000004  0.000000
  0.000000  0.000000  0.000000

  -0.000285  0.000022  0.000000
  0.000022  -0.000001  0.000000
  0.000000  0.000000  0.000000

  -0.000005  0.000015  0.000000
  0.000015  -0.000061  0.000000
  0.000000  0.000000  0.000000

  -0.000005  0.000017  0.000000
  0.000017  -0.000061  0.000000
  0.000000  0.000000  0.000000

  -0.000112  0.000102  0.000000
  0.000102  -0.000098  0.000000
  0.000000  0.000000  0.000000

  -0.000118  0.000102  0.000000
  0.000102  -0.000089  0.000000
  0.000000  0.000000  0.000000

  -0.000000  0.000000  0.000000
  0.000000  -0.000012  0.000000
  0.000000  0.000000  0.000000

  0.000001  0.000003  0.000000
  0.000003  -0.000011  0.000000
  0.000000  0.000000  0.000000

  -0.000195  0.000103  0.000000
  0.000103  -0.000058  0.000000
  0.000000  0.000000  0.000000

  -0.000188  0.000106  0.000000
  0.000106  -0.000062  0.000000
  0.000000  0.000000  0.000000

  -0.000003  0.000013  0.000000
  0.000013  -0.000055  0.000000
  0.000000  0.000000  0.000000

  -0.000003  0.000014  0.000000
  0.000014  -0.000055  0.000000
  0.000000  0.000000  0.000000

  -0.000231  0.000087  0.000000
  0.000087  -0.000036  0.000000
  0.000000  0.000000  0.000000

  -0.000212  0.000077  0.000000
  0.000077  -0.000036  0.000000
  0.000000  0.000000  0.000000

  -0.000018  0.000040  0.000000
  0.000040  -0.000094  0.000000
  0.000000  0.000000  0.000000

  -0.000018  0.000042  0.000000
  0.000042  -0.000092  0.000000
  0.000000  0.000000  0.000000

  -0.000208  0.000098  0.000000
  0.000098  -0.000049  0.000000
  0.000000  0.000000  0.000000

  -0.000203  0.000101  0.000000
  0.000101  -0.000049  0.000000
  0.000000  0.000000  0.000000

  -0.000002  0.000010  0.000000
  0.000010  -0.000049  0.000000
  0.000000  0.000000  0.000000

  -0.000003  0.000012  0.000000
  0.000012  -0.000049  0.000000
  0.000000  0.000000  0.000000

  -0.000099  0.000098  0.000000
  0.000098  -0.000101  0.000000
  0.000000  0.000000  0.000000

  -0.000093  0.000087  0.000000
  0.000087  -0.000091  0.000000
  0.000000  0.000000  0.000000

  -0.000282  0.000007  0.000000
  0.000007  -0.000002  0.000000
  0.000000  0.000000  0.000000

  -0.000280  0.000012  0.000000
  0.000012  0.000002  0.000000
  0.000000  0.000000  0.000000

  -0.000002  0.000007  0.000000
  0.000007  -0.000043  0.000000
  0.000000  0.000000  0.000000

  -0.000002  0.000010  0.000000
  0.000010  -0.000043  0.000000
  0.000000  0.000000  0.000000

  -0.000278  0.000031  0.000000
  0.000031  -0.000007  0.000000
  0.000000  0.000000  0.000000

  -0.000275  0.000039  0.000000
  0.000039  -0.000006  0.000000
  0.000000  0.000000  0.000000

  -0.000067  0.000083  0.000000
  0.000083  -0.000107  0.000000
  0.000000  0.000000  0.000000

  -0.000062  0.000082  0.000000
  0.000082  -0.000109  0.000000
  0.000000  0.000000  0.000000

  -0.000243  0.000081  0.000000
  0.000081  -0.000029  0.000000
  0.000000  0.000000  0.000000

  -0.000243  0.000083  0.000000
  0.000083  -0.000024  0.000000
  0.000000  0.000000  0.000000

  -0.000001  0.000006  0.000000
  0.000006  -0.000036  0.000000
  0.000000  0.000000  0.000000

  -0.000001  0.000007  0.000000
  0.000007  -0.000036  0.000000
  0.000000  0.000000  0.000000

  -0.000178  0.000108  0.000000
  0.000108  -0.000067  0.000000
  0.000000  0.000000  0.000000

  -0.000179  0.000107  0.000000
  0.000107  -0.000064  0.000000
  0.000000  0.000000  0.000000

  -0.000004  0.000014  0.000000
  0.000014  -0.000060  0.000000
  0.000000  0.000000  0.000000

  -0.000005  0.000017  0.000000
  0.000017  -0.000058  0.000000
  0.000000  0.000000  0.000000

  -0.000112  0.000102  0.000000
  0.000102  -0.000097  0.000000
  0.000000  0.000000  0.000000

  -0.000111  0.000103  0.000000
  0.000103  -0.000095  0.000000
  0.000000  0.000000  0.000000

  -0.000001  0.000004  0.000000
  0.000004  -0.000030  0.000000
  0.000000  0.000000  0.000000

  -0.000001  0.000006  0.000000
  0.000006  -0.000029  0.000000
  0.000000  0.000000  0.000000

  -0.000272  0.000048  0.000000
  0.000048  -0.000011  0.000000
  0.000000  0.000000  0.000000

  -0.000273  0.000042  0.000000
  0.000042  -0.000007  0.000000
  0.000000  0.000000  0.000000

  -0.000055  0.000075  0.000000
  0.000075  -0.000107  0.000000
  0.000000  0.000000  0.000000

  -0.000051  0.000074  0.000000
  0.000074  -0.000109  0.000000
  0.000000  0.000000  0.000000

  -0.000230  0.000090  0.000000
  0.000090  -0.000038  0.000000
  0.000000  0.000000  0.000000

  -0.000231  0.000091  0.000000
  0.000091  -0.000032  0.000000
  0.000000  0.000000  0.000000

  -0.000000  0.000003  0.000000
  0.000003  -0.000024  0.000000
  0.000000  0.000000  0.000000

  -0.000001  0.000005  0.000000
  0.000005  -0.000023  0.000000
  0.000000  0.000000  0.000000

  -0.000161  0.000109  0.000000
  0.000109  -0.000076  0.000000
  0.000000  0.000000  0.000000

  -0.000162  0.000110  0.000000
  0.000110  -0.000073  0.000000
  0.000000  0.000000  0.000000

  -0.000002  0.000009  0.000000
  0.000009  -0.000048  0.000000
  0.000000  0.000000  0.000000

  -0.000003  0.000012  0.000000
  0.000012  -0.000046  0.000000
  0.000000  0.000000  0.000000

  -0.000096  0.000098  0.000000
  0.000098  -0.000104  0.000000
  0.000000  0.000000  0.000000

  -0.000098  0.000099  0.000000
  0.000099  -0.000098  0.000000
  0.000000  0.000000  0.000000

  -0.000000  0.000002  0.000000
  0.000002  -0.000017  0.000000
  0.000000  0.000000  0.000000

  -0.000001  0.000004  0.000000
  0.000004  -0.000015  0.000000
  0.000000  0.000000  0.000000

  -0.000283  0.000017  0.000000
  0.000017  -0.000004  0.000000
  0.000000  0.000000  0.000000

  -0.000280  0.000026  0.000000
  0.000026  -0.000004  0.000000
  0.000000  0.000000  0.000000

  -0.000077  0.000089  0.000000
  0.000089  -0.000108  0.000000
  0.000000  0.000000  0.000000

  -0.000083  0.000090  0.000000
  0.000090  -0.000100  0.000000
  0.000000  0.000000  0.000000

  -0.000256  0.000072  0.000000
  0.000072  -0.000022  0.000000
  0.000000  0.000000  0.000000

  -0.000255  0.000074  0.000000
  0.000074  -0.000018  0.000000
  0.000000  0.000000  0.000000

  -0.000001  0.000001  0.000000
  0.000001  -0.000012  0.000000
  0.000000  0.000000  0.000000

  0.000000  0.000001  0.000000
  0.000001  -0.000012  0.000000
  0.000000  0.000000  0.000000

  -0.000195  0.000103  0.000000
  0.000103  -0.000057  0.000000
  0.000000  0.000000  0.000000

  -0.000195  0.000104  0.000000
  0.000104  -0.000055  0.000000
  0.000000  0.000000  0.000000

  -0.000007  0.000021  0.000000
  0.000021  -0.000072  0.000000
  0.000000  0.000000  0.000000

  -0.000008  0.000024  0.000000
  0.000024  -0.000068  0.000000
  0.000000  0.000000  0.000000

  -0.000127  0.000104  0.000000
  0.000104  -0.000088  0.000000
  0.000000  0.000000  0.000000

  -0.000119  0.000102  0.000000
  0.000102  -0.000092  0.000000
  0.000000  0.000000  0.000000

  0.000001  0.000004  0.000000
  0.000004  -0.000002  0.000000
  0.000000  0.000000  0.000000

  -0.000207  0.000099  0.000000
  0.000099  -0.000050  0.000000
  0.000000  0.000000  0.000000

  -0.000210  0.000096  0.000000
  0.000096  -0.000044  0.000000
  0.000000  0.000000  0.000000

  -0.000011  0.000028  0.000000
  0.000028  -0.000080  0.000000
  0.000000  0.000000  0.000000

  -0.000010  0.000028  0.000000
  0.000028  -0.000080  0.000000
  0.000000  0.000000  0.000000

  -0.000145  0.000108  0.000000
  0.000108  -0.000084  0.000000
  0.000000  0.000000  0.000000

  -0.000141  0.000110  0.000000
  0.000110  -0.000084  0.000000
  0.000000  0.000000  0.000000

  -0.000276  0.000008  0.000000
  0.000008  -0.000003  0.000000
  0.000000  0.000000  0.000000

  -0.000275  0.000003  0.000000
  0.000003  0.000001  0.000000
  0.000000  0.000000  0.000000

  -0.000094  0.000096  0.000000
  0.000096  -0.000100  0.000000
  0.000000  0.000000  0.000000

  -0.000088  0.000093  0.000000
  0.000093  -0.000103  0.000000
  0.000000  0.000000  0.000000

  -0.000264  0.000060  0.000000
  0.000060  -0.000016  0.000000
  0.000000  0.000000  0.000000

  -0.000264  0.000060  0.000000
  0.000060  -0.000012  0.000000
  0.000000  0.000000  0.000000

  -0.000092  0.000097  0.000000
  0.000097  -0.000104  0.000000
  0.000000  0.000000  0.000000

  -0.000097  0.000093  0.000000
  0.000093  -0.000094  0.000000
  0.000000  0.000000  0.000000

  -0.000012  0.000031  0.000000
  0.000031  -0.000085  0.000000
  0.000000  0.000000  0.000000

  -0.000014  0.000033  0.000000
  0.000033  -0.000083  0.000000
  0.000000  0.000000  0.000000

  -0.000157  0.000107  0.000000
  0.000107  -0.000077  0.000000
  0.000000  0.000000  0.000000

  -0.000146  0.000096  0.000000
  0.000096  -0.000069  0.000000
  0.000000  0.000000  0.000000

  -0.000001  0.000006  0.000000
  0.000006  -0.000039  0.000000
  0.000000  0.000000  0.000000

  -0.000002  0.000009  0.000000
  0.000009  -0.000037  0.000000
  0.000000  0.000000  0.000000

  -0.000087  0.000094  0.000000
  0.000094  -0.000106  0.000000
  0.000000  0.000000  0.000000

  -0.000088  0.000095  0.000000
  0.000095  -0.000102  0.000000
  0.000000  0.000000  0.000000

  -0.000262  0.000065  0.000000
  0.000065  -0.000018  0.000000
  0.000000  0.000000  0.000000

  -0.000260  0.000068  0.000000
  0.000068  -0.000012  0.000000
  0.000000  0.000000  0.000000

  -0.000038  0.000063  0.000000
  0.000063  -0.000106  0.000000
  0.000000  0.000000  0.000000

  -0.000038  0.000064  0.000000
  0.000064  -0.000105  0.000000
  0.000000  0.000000  0.000000

  -0.000278  0.000042  0.000000
  0.000042  -0.000008  0.000000
  0.000000  0.000000  0.000000

  -0.000278  0.000042  0.000000
  0.000042  -0.000003  0.000000
  0.000000  0.000000  0.000000

  -0.000081  0.000091  0.000000
  0.000091  -0.000106  0.000000
  0.000000  0.000000  0.000000

  -0.000081  0.000092  0.000000
  0.000092  -0.000104  0.000000
  0.000000  0.000000  0.000000

  -0.000008  0.000024  0.000000
  0.000024  -0.000075  0.000000
  0.000000  0.000000  0.000000

  -0.000009  0.000026  0.000000
  0.000026  -0.000074  0.000000
  0.000000  0.000000  0.000000

  -0.000140  0.000106  0.000000
  0.000106  -0.000085  0.000000
  0.000000  0.000000  0.000000

  -0.000132  0.000096  0.000000
  0.000096  -0.000079  0.000000
  0.000000  0.000000  0.000000

  -0.000001  0.000003  0.000000
  0.000003  -0.000025  0.000000
  0.000000  0.000000  0.000000

  -0.000001  0.000005  0.000000
  0.000005  -0.000025  0.000000
  0.000000  0.000000  0.000000

  -0.000075  0.000089  0.000000
  0.000089  -0.000108  0.000000
  0.000000  0.000000  0.000000

  -0.000073  0.000089  0.000000
  0.000089  -0.000108  0.000000
  0.000000  0.000000  0.000000

  -0.000250  0.000076  0.000000
  0.000076  -0.000025  0.000000
  0.000000  0.000000  0.000000

  -0.000251  0.000075  0.000000
  0.000075  -0.000018  0.000000
  0.000000  0.000000  0.000000

  -0.000030  0.000054  0.000000
  0.000054  -0.000103  0.000000
  0.000000  0.000000  0.000000

  -0.000029  0.000055  0.000000
  0.000055  -0.000103  0.000000
  0.000000  0.000000  0.000000

  -0.000268  0.000055  0.000000
  0.000055  -0.000014  0.000000
  0.000000  0.000000  0.000000

  -0.000268  0.000051  0.000000
  0.000051  -0.000011  0.000000
  0.000000  0.000000  0.000000

  -0.000067  0.000084  0.000000
  0.000084  -0.000109  0.000000
  0.000000  0.000000  0.000000

  -0.000069  0.000084  0.000000
  0.000084  -0.000107  0.000000
  0.000000  0.000000  0.000000

  -0.000005  0.000017  0.000000
  0.000017  -0.000064  0.000000
  0.000000  0.000000  0.000000

  -0.000005  0.000018  0.000000
  0.000018  -0.000063  0.000000
  0.000000  0.000000  0.000000

  -0.000124  0.000104  0.000000
  0.000104  -0.000091  0.000000
  0.000000  0.000000  0.000000

  -0.000116  0.000094  0.000000
  0.000094  -0.000082  0.000000
  0.000000  0.000000  0.000000

  -0.000000  0.000001  0.000000
  0.000001  -0.000014  0.000000
  0.000000  0.000000  0.000000

  0.000000  0.000003  0.000000
  0.000003  -0.000013  0.000000
  0.000000  0.000000  0.000000

  -0.000061  0.000080  0.000000
  0.000080  -0.000109  0.000000
  0.000000  0.000000  0.000000

  -0.000063  0.000081  0.000000
  0.000081  -0.000106  0.000000
  0.000000  0.000000  0.000000

  -0.000239  0.000085  0.000000
  0.000085  -0.000032  0.000000
  0.000000  0.000000  0.000000

  -0.000239  0.000086  0.000000
  0.000086  -0.000027  0.000000
  0.000000  0.000000  0.000000

  -0.000022  0.000045  0.000000
  0.000045  -0.000097  0.000000
  0.000000  0.000000  0.000000

  -0.000022  0.000046  0.000000
  0.000046  -0.000096  0.000000
  0.000000  0.000000  0.000000

  -0.000281  0.000030  0.000000
  0.000030  -0.000006  0.000000
  0.000000  0.000000  0.000000

  -0.000281  0.000027  0.000000
  0.000027  -0.000002  0.000000
  0.000000  0.000000  0.000000

  -0.000054  0.000076  0.000000
  0.000076  -0.000110  0.000000
  0.000000  0.000000  0.000000

  -0.000055  0.000077  0.000000
  0.000077  -0.000108  0.000000
  0.000000  0.000000  0.000000

  -0.000003  0.000011  0.000000
  0.000011  -0.000052  0.000000
  0.000000  0.000000  0.000000

  -0.000003  0.000014  0.000000
  0.000014  -0.000052  0.000000
  0.000000  0.000000  0.000000

  -0.000108  0.000100  0.000000
  0.000100  -0.000096  0.000000
  0.000000  0.000000  0.000000

  -0.000102  0.000089  0.000000
  0.000089  -0.000089  0.000000
  0.000000  0.000000  0.000000

  -0.000283  0.000014  0.000000
  0.000014  -0.000003  0.000000
  0.000000  0.000000  0.000000

  -0.000283  0.000016  0.000000
  0.000016  -0.000003  0.000000
  0.000000  0.000000  0.000000

  -0.000050  0.000072  0.000000
  0.000072  -0.000109  0.000000
  0.000000  0.000000  0.000000

  -0.000048  0.000073  0.000000
  0.000073  -0.000109  0.000000
  0.000000  0.000000  0.000000

  -0.000225  0.000092  0.000000
  0.000092  -0.000041  0.000000
  0.000000  0.000000  0.000000

  -0.000224  0.000094  0.000000
  0.000094  -0.000037  0.000000
  0.000000  0.000000  0.000000

  -0.000015  0.000036  0.000000
  0.000036  -0.000090  0.000000
  0.000000  0.000000  0.000000

  -0.000017  0.000038  0.000000
  0.000038  -0.000088  0.000000
  0.000000  0.000000  0.000000

  -0.000045  0.000069  0.000000
  0.000069  -0.000106  0.000000
  0.000000  0.000000  0.000000

  -0.000043  0.000067  0.000000
  0.000067  -0.000108  0.000000
  0.000000  0.000000  0.000000

  -0.000002  0.000007  0.000000
  0.000007  -0.000040  0.000000
  0.000000  0.000000  0.000000

  -0.000002  0.000008  0.000000
  0.000008  -0.000040  0.000000
  0.000000  0.000000  0.000000

  -0.000187  0.000107  0.000000
  0.000107  -0.000063  0.000000
  0.000000  0.000000  0.000000

  -0.000192  0.000101  0.000000
  0.000101  -0.000056  0.000000
  0.000000  0.000000  0.000000

  -0.000004  0.000016  0.000000
  0.000016  -0.000063  0.000000
  0.000000  0.000000  0.000000

  -0.000006  0.000019  0.000000
  0.000019  -0.000060  0.000000
  0.000000  0.000000  0.000000

  -0.000038  0.000062  0.000000
  0.000062  -0.000107  0.000000
  0.000000  0.000000  0.000000

  -0.000043  0.000064  0.000000
  0.000064  -0.000101  0.000000
  0.000000  0.000000  0.000000

  -0.000277  0.000038  0.000000
  0.000038  -0.000008  0.000000
  0.000000  0.000000  0.000000

  -0.000272  0.000046  0.000000
  0.000046  -0.000007  0.000000
  0.000000  0.000000  0.000000

  -0.000060  0.000079  0.000000
  0.000079  -0.000107  0.000000
  0.000000  0.000000  0.000000

  -0.000063  0.000075  0.000000
  0.000075  -0.000096  0.000000
  0.000000  0.000000  0.000000

  -0.000234  0.000086  0.000000
  0.000086  -0.000035  0.000000
  0.000000  0.000000  0.000000

  -0.000238  0.000080  0.000000
  0.000080  -0.000027  0.000000
  0.000000  0.000000  0.000000

  -0.000036  0.000059  0.000000
  0.000059  -0.000104  0.000000
  0.000000  0.000000  0.000000

  -0.000034  0.000058  0.000000
  0.000058  -0.000105  0.000000
  0.000000  0.000000  0.000000

  -0.000001  0.000003  0.000000
  0.000003  -0.000027  0.000000
  0.000000  0.000000  0.000000

  -0.000001  0.000006  0.000000
  0.000006  -0.000026  0.000000
  0.000000  0.000000  0.000000

  -0.000172  0.000105  0.000000
  0.000105  -0.000068  0.000000
  0.000000  0.000000  0.000000

  -0.000160  0.000094  0.000000
  0.000094  -0.000062  0.000000
  0.000000  0.000000  0.000000

  -0.000003  0.000010  0.000000
  0.000010  -0.000051  0.000000
  0.000000  0.000000  0.000000

  -0.000004  0.000013  0.000000
  0.000013  -0.000049  0.000000
  0.000000  0.000000  0.000000

  -0.000030  0.000054  0.000000
  0.000054  -0.000104  0.000000
  0.000000  0.000000  0.000000

  -0.000033  0.000057  0.000000
  0.000057  -0.000098  0.000000
  0.000000  0.000000  0.000000

  -0.000270  0.000051  0.000000
  0.000051  -0.000012  0.000000
  0.000000  0.000000  0.000000

  -0.000267  0.000055  0.000000
  0.000055  -0.000012  0.000000
  0.000000  0.000000  0.000000

  -0.000048  0.000071  0.000000
  0.000071  -0.000110  0.000000
  0.000000  0.000000  0.000000

  -0.000051  0.000073  0.000000
  0.000073  -0.000104  0.000000
  0.000000  0.000000  0.000000

  -0.000220  0.000094  0.000000
  0.000094  -0.000044  0.000000
  0.000000  0.000000  0.000000

  -0.000224  0.000089  0.000000
  0.000089  -0.000035  0.000000
  0.000000  0.000000  0.000000

  -0.000027  0.000050  0.000000
  0.000050  -0.000100  0.000000
  0.000000  0.000000  0.000000

  -0.000025  0.000049  0.000000
  0.000049  -0.000101  0.000000
  0.000000  0.000000  0.000000

  -0.000000  0.000001  0.000000
  0.000001  -0.000015  0.000000
  0.000000  0.000000  0.000000

  -0.000000  0.000002  0.000000
  0.000002  -0.000015  0.000000
  0.000000  0.000000  0.000000

  -0.000205  0.000099  0.000000
  0.000099  -0.000050  0.000000
  0.000000  0.000000  0.000000

  -0.000189  0.000088  0.000000
  0.000088  -0.000049  0.000000
  0.000000  0.000000  0.000000

  -0.000007  0.000022  0.000000
  0.000022  -0.000075  0.000000
  0.000000  0.000000  0.000000

  -0.000010  0.000026  0.000000
  0.000026  -0.000070  0.000000
  0.000000  0.000000  0.000000

  -0.000022  0.000045  0.000000
  0.000045  -0.000099  0.000000
  0.000000  0.000000  0.000000

  -0.000025  0.000048  0.000000
  0.000048  -0.000094  0.000000
  0.000000  0.000000  0.000000

  -0.000281  0.000024  0.000000
  0.000024  -0.000005  0.000000
  0.000000  0.000000  0.000000

  -0.000278  0.000032  0.000000
  0.000032  -0.000005  0.000000
  0.000000  0.000000  0.000000

  -0.000071  0.000088  0.000000
  0.000088  -0.000110  0.000000
  0.000000  0.000000  0.000000

  -0.000075  0.000088  0.000000
  0.000088  -0.000103  0.000000
  0.000000  0.000000  0.000000

  -0.000245  0.000076  0.000000
  0.000076  -0.000026  0.000000
  0.000000  0.000000  0.000000

  -0.000248  0.000068  0.000000
  0.000068  -0.000018  0.000000
  0.000000  0.000000  0.000000

  -0.000020  0.000041  0.000000
  0.000041  -0.000093  0.000000
  0.000000  0.000000  0.000000

  -0.000018  0.000041  0.000000
  0.000041  -0.000094  0.000000
  0.000000  0.000000  0.000000

  -0.000282  0.000015  0.000000
  0.000015  -0.000004  0.000000
  0.000000  0.000000  0.000000

  -0.000281  0.000009  0.000000
  0.000009  -0.000001  0.000000
  0.000000  0.000000  0.000000

  -0.000087  0.000093  0.000000
  0.000093  -0.000104  0.000000
  0.000000  0.000000  0.000000

  -0.000084  0.000085  0.000000
  0.000085  -0.000093  0.000000
  0.000000  0.000000  0.000000

  -0.000258  0.000066  0.000000
  0.000066  -0.000020  0.000000
  0.000000  0.000000  0.000000

  -0.000260  0.000060  0.000000
  0.000060  -0.000012  0.000000
  0.000000  0.000000  0.000000

  -0.000016  0.000036  0.000000
  0.000036  -0.000092  0.000000
  0.000000  0.000000  0.000000

  -0.000018  0.000040  0.000000
  0.000040  -0.000087  0.000000
  0.000000  0.000000  0.000000

  -0.000220  0.000093  0.000000
  0.000093  -0.000043  0.000000
  0.000000  0.000000  0.000000

  -0.000204  0.000083  0.000000
  0.000083  -0.000039  0.000000
  0.000000  0.000000  0.000000

  -0.000012  0.000030  0.000000
  0.000030  -0.000082  0.000000
  0.000000  0.000000  0.000000

  -0.000011  0.000030  0.000000
  0.000030  -0.000082  0.000000
  0.000000  0.000000  0.000000

  -0.000265  0.000053  0.000000
  0.000053  -0.000014  0.000000
  0.000000  0.000000  0.000000

  -0.000260  0.000061  0.000000
  0.000061  -0.000015  0.000000
  0.000000  0.000000  0.000000

  -0.000154  0.000109  0.000000
  0.000109  -0.000080  0.000000
  0.000000  0.000000  0.000000

  -0.000155  0.000110  0.000000
  0.000110  -0.000073  0.000000
  0.000000  0.000000  0.000000

  -0.000001  0.000007  0.000000
  0.000007  -0.000042  0.000000
  0.000000  0.000000  0.000000

  -0.000002  0.000010  0.000000
  0.000010  -0.000040  0.000000
  0.000000  0.000000  0.000000

  -0.000182  0.000106  0.000000
  0.000106  -0.000065  0.000000
  0.000000  0.000000  0.000000

  -0.000188  0.000102  0.000000
  0.000102  -0.000055  0.000000
  0.000000  0.000000  0.000000

  -0.000261  0.000063  0.000000
  0.000063  -0.000018  0.000000
  0.000000  0.000000  0.000000

  -0.000261  0.000054  0.000000
  0.000054  -0.000012  0.000000
  0.000000  0.000000  0.000000

  -0.000036  0.000060  0.000000
  0.000060  -0.000107  0.000000
  0.000000  0.000000  0.000000

  -0.000040  0.000063  0.000000
  0.000063  -0.000101  0.000000
  0.000000  0.000000  0.000000

  -0.000280  0.000039  0.000000
  0.000039  -0.000008  0.000000
  0.000000  0.000000  0.000000

  -0.000280  0.000037  0.000000
  0.000037  -0.000005  0.000000
  0.000000  0.000000  0.000000

  -0.000055  0.000077  0.000000
  0.000077  -0.000111  0.000000
  0.000000  0.000000  0.000000

  -0.000060  0.000078  0.000000
  0.000078  -0.000105  0.000000
  0.000000  0.000000  0.000000

  -0.000257  0.000066  0.000000
  0.000066  -0.000020  0.000000
  0.000000  0.000000  0.000000

  -0.000252  0.000073  0.000000
  0.000073  -0.000021  0.000000
  0.000000  0.000000  0.000000

  -0.000137  0.000108  0.000000
  0.000108  -0.000088  0.000000
  0.000000  0.000000  0.000000

  -0.000138  0.000108  0.000000
  0.000108  -0.000082  0.000000
  0.000000  0.000000  0.000000

  -0.000001  0.000004  0.000000
  0.000004  -0.000028  0.000000
  0.000000  0.000000  0.000000

  -0.000001  0.000006  0.000000
  0.000006  -0.000028  0.000000
  0.000000  0.000000  0.000000

  -0.000170  0.000108  0.000000
  0.000108  -0.000071  0.000000
  0.000000  0.000000  0.000000

  -0.000165  0.000109  0.000000
  0.000109  -0.000074  0.000000
  0.000000  0.000000  0.000000

  -0.000253  0.000073  0.000000
  0.000073  -0.000024  0.000000
  0.000000  0.000000  0.000000

  -0.000255  0.000068  0.000000
  0.000068  -0.000016  0.000000
  0.000000  0.000000  0.000000

  -0.000027  0.000052  0.000000
  0.000052  -0.000104  0.000000
  0.000000  0.000000  0.000000

  -0.000031  0.000054  0.000000
  0.000054  -0.000098  0.000000
  0.000000  0.000000  0.000000

  -0.000272  0.000052  0.000000
  0.000052  -0.000012  0.000000
  0.000000  0.000000  0.000000

  -0.000272  0.000050  0.000000
  0.000050  -0.000008  0.000000
  0.000000  0.000000  0.000000

  -0.000045  0.000069  0.000000
  0.000069  -0.000109  0.000000
  0.000000  0.000000  0.000000

  -0.000045  0.000071  0.000000
  0.000071  -0.000104  0.000000
  0.000000  0.000000  0.000000

  -0.000245  0.000075  0.000000
  0.000075  -0.000026  0.000000
  0.000000  0.000000  0.000000

  -0.000238  0.000081  0.000000
  0.000081  -0.000030  0.000000
  0.000000  0.000000  0.000000

  -0.000120  0.000105  0.000000
  0.000105  -0.000095  0.000000
  0.000000  0.000000  0.000000

  -0.000122  0.000105  0.000000
  0.000105  -0.000089  0.000000
  0.000000  0.000000  0.000000

  -0.000000  0.000001  0.000000
  0.000001  -0.000017  0.000000
  0.000000  0.000000  0.000000

  -0.000000  0.000003  0.000000
  0.000003  -0.000016  0.000000
  0.000000  0.000000  0.000000

  -0.000197  0.000102  0.000000
  0.000102  -0.000056  0.000000
  0.000000  0.000000  0.000000

  -0.000202  0.000097  0.000000
  0.000097  -0.000048  0.000000
  0.000000  0.000000  0.000000

  -0.000239  0.000083  0.000000
  0.000083  -0.000032  0.000000
  0.000000  0.000000  0.000000

  -0.000242  0.000077  0.000000
  0.000077  -0.000023  0.000000
  0.000000  0.000000  0.000000

  -0.000021  0.000043  0.000000
  0.000043  -0.000097  0.000000
  0.000000  0.000000  0.000000

  -0.000023  0.000046  0.000000
  0.000046  -0.000093  0.000000
  0.000000  0.000000  0.000000

  -0.000283  0.000026  0.000000
  0.000026  -0.000004  0.000000
  0.000000  0.000000  0.000000

  -0.000283  0.000023  0.000000
  0.000023  -0.000002  0.000000
  0.000000  0.000000  0.000000

  -0.000067  0.000084  0.000000
  0.000084  -0.000110  0.000000
  0.000000  0.000000  0.000000

  -0.000073  0.000085  0.000000
  0.000085  -0.000102  0.000000
  0.000000  0.000000  0.000000

  -0.000235  0.000086  0.000000
  0.000086  -0.000034  0.000000
  0.000000  0.000000  0.000000

  -0.000233  0.000089  0.000000
  0.000089  -0.000033  0.000000
  0.000000  0.000000  0.000000

  -0.000106  0.000101  0.000000
  0.000101  -0.000099  0.000000
  0.000000  0.000000  0.000000

  -0.000105  0.000103  0.000000
  0.000103  -0.000097  0.000000
  0.000000  0.000000  0.000000

  -0.000283  0.000010  0.000000
  0.000010  -0.000003  0.000000
  0.000000  0.000000  0.000000

  -0.000282  0.000014  0.000000
  0.000014  -0.000000  0.000000
  0.000000  0.000000  0.000000

  -0.000080  0.000091  0.000000
  0.000091  -0.000107  0.000000
  0.000000  0.000000  0.000000

  -0.000086  0.000092  0.000000
  0.000092  -0.000099  0.000000
  0.000000  0.000000  0.000000

  -0.000226  0.000091  0.000000
  0.000091  -0.000040  0.000000
  0.000000  0.000000  0.000000

  -0.000229  0.000084  0.000000
  0.000084  -0.000030  0.000000
  0.000000  0.000000  0.000000

  -0.000015  0.000035  0.000000
  0.000035  -0.000089  0.000000
  0.000000  0.000000  0.000000

  -0.000017  0.000034  0.000000
  0.000034  -0.000080  0.000000
  0.000000  0.000000  0.000000

  -0.000212  0.000097  0.000000
  0.000097  -0.000048  0.000000
  0.000000  0.000000  0.000000

  -0.000217  0.000091  0.000000
  0.000091  -0.000040  0.000000
  0.000000  0.000000  0.000000

  -0.000282  0.000027  0.000000
  0.000027  -0.000004  0.000000
  0.000000  0.000000  0.000000

  -0.000277  0.000034  0.000000
  0.000034  -0.000005  0.000000
  0.000000  0.000000  0.000000

  -0.000187  0.000106  0.000000
  0.000106  -0.000063  0.000000
  0.000000  0.000000  0.000000

  -0.000186  0.000108  0.000000
  0.000108  -0.000059  0.000000
  0.000000  0.000000  0.000000

  -0.000005  0.000017  0.000000
  0.000017  -0.000066  0.000000
  0.000000  0.000000  0.000000

  -0.000007  0.000020  0.000000
  0.000020  -0.000063  0.000000
  0.000000  0.000000  0.000000

  -0.000117  0.000105  0.000000
  0.000105  -0.000095  0.000000
  0.000000  0.000000  0.000000

  -0.000121  0.000099  0.000000
  0.000099  -0.000085  0.000000
  0.000000  0.000000  0.000000

  -0.000281  0.000034  0.000000
  0.000034  -0.000006  0.000000
  0.000000  0.000000  0.000000

  -0.000276  0.000041  0.000000
  0.000041  -0.000008  0.000000
  0.000000  0.000000  0.000000

  -0.000058  0.000079  0.000000
  0.000079  -0.000111  0.000000
  0.000000  0.000000  0.000000

  -0.000057  0.000080  0.000000
  0.000080  -0.000109  0.000000
  0.000000  0.000000  0.000000

  -0.000239  0.000082  0.000000
  0.000082  -0.000031  0.000000
  0.000000  0.000000  0.000000

  -0.000233  0.000088  0.000000
  0.000088  -0.000033  0.000000
  0.000000  0.000000  0.000000

  -0.000020  0.000042  0.000000
  0.000042  -0.000095  0.000000
  0.000000  0.000000  0.000000

  -0.000022  0.000044  0.000000
  0.000044  -0.000093  0.000000
  0.000000  0.000000  0.000000

  -0.000274  0.000045  0.000000
  0.000045  -0.000010  0.000000
  0.000000  0.000000  0.000000

  -0.000274  0.000036  0.000000
  0.000036  -0.000005  0.000000
  0.000000  0.000000  0.000000

  -0.000169  0.000108  0.000000
  0.000108  -0.000072  0.000000
  0.000000  0.000000  0.000000

  -0.000170  0.000108  0.000000
  0.000108  -0.000068  0.000000
  0.000000  0.000000  0.000000

  -0.000003  0.000012  0.000000
  0.000012  -0.000054  0.000000
  0.000000  0.000000  0.000000

  -0.000004  0.000015  0.000000
  0.000015  -0.000053  0.000000
  0.000000  0.000000  0.000000

  -0.000103  0.000100  0.000000
  0.000100  -0.000101  0.000000
  0.000000  0.000000  0.000000

  -0.000108  0.000100  0.000000
  0.000100  -0.000092  0.000000
  0.000000  0.000000  0.000000

  -0.000273  0.000048  0.000000
  0.000048  -0.000011  0.000000
  0.000000  0.000000  0.000000

  -0.000251  0.000041  0.000000
  0.000041  -0.000012  0.000000
  0.000000  0.000000  0.000000

  -0.000047  0.000069  0.000000
  0.000069  -0.000107  0.000000
  0.000000  0.000000  0.000000

  -0.000043  0.000069  0.000000
  0.000069  -0.000109  0.000000
  0.000000  0.000000  0.000000

  -0.000224  0.000090  0.000000
  0.000090  -0.000038  0.000000
  0.000000  0.000000  0.000000

  -0.000218  0.000094  0.000000
  0.000094  -0.000042  0.000000
  0.000000  0.000000  0.000000

  -0.000014  0.000034  0.000000
  0.000034  -0.000089  0.000000
  0.000000  0.000000  0.000000

  -0.000016  0.000037  0.000000
  0.000037  -0.000085  0.000000
  0.000000  0.000000  0.000000

  -0.000283  0.000014  0.000000
  0.000014  -0.000004  0.000000
  0.000000  0.000000  0.000000

  -0.000257  0.000012  0.000000
  0.000012  -0.000007  0.000000
  0.000000  0.000000  0.000000

  -0.000202  0.000101  0.000000
  0.000101  -0.000053  0.000000
  0.000000  0.000000  0.000000

  -0.000203  0.000102  0.000000
  0.000102  -0.000050  0.000000
  0.000000  0.000000  0.000000

  -0.000008  0.000024  0.000000
  0.000024  -0.000077  0.000000
  0.000000  0.000000  0.000000

  -0.000010  0.000027  0.000000
  0.000027  -0.000074  0.000000
  0.000000  0.000000  0.000000

  -0.000133  0.000107  0.000000
  0.000107  -0.000088  0.000000
  0.000000  0.000000  0.000000

  -0.000137  0.000101  0.000000
  0.000101  -0.000077  0.000000
  0.000000  0.000000  0.000000

  -0.000283  0.000021  0.000000
  0.000021  -0.000004  0.000000
  0.000000  0.000000  0.000000

  -0.000281  0.000027  0.000000
  0.000027  -0.000003  0.000000
  0.000000  0.000000  0.000000

  -0.000071  0.000086  0.000000
  0.000086  -0.000108  0.000000
  0.000000  0.000000  0.000000

  -0.000071  0.000087  0.000000
  0.000087  -0.000106  0.000000
  0.000000  0.000000  0.000000

  -0.000251  0.000072  0.000000
  0.000072  -0.000024  0.000000
  0.000000  0.000000  0.000000

  -0.000246  0.000078  0.000000
  0.000078  -0.000024  0.000000
  0.000000  0.000000  0.000000

  -0.000027  0.000051  0.000000
  0.000051  -0.000101  0.000000
  0.000000  0.000000  0.000000

  -0.000027  0.000053  0.000000
  0.000053  -0.000100  0.000000
  0.000000  0.000000  0.000000

  -0.000281  0.000011  0.000000
  0.000011  -0.000003  0.000000
  0.000000  0.000000  0.000000

  -0.000280  0.000006  0.000000
  0.000006  0.000000  0.000000
  0.000000  0.000000  0.000000

  -0.000084  0.000093  0.000000
  0.000093  -0.000107  0.000000
  0.000000  0.000000  0.000000

  -0.000084  0.000095  0.000000
  0.000095  -0.000103  0.000000
  0.000000  0.000000  0.000000

  -0.000258  0.000062  0.000000
  0.000062  -0.000018  0.000000
  0.000000  0.000000  0.000000

  -0.000253  0.000069  0.000000
  0.000069  -0.000019  0.000000
  0.000000  0.000000  0.000000

  -0.000036  0.000060  0.000000
  0.000060  -0.000106  0.000000
  0.000000  0.000000  0.000000

  -0.000037  0.000062  0.000000
  0.000062  -0.000103  0.000000
  0.000000  0.000000  0.000000

  -0.000218  0.000096  0.000000
  0.000096  -0.000045  0.000000
  0.000000  0.000000  0.000000

  -0.000219  0.000096  0.000000
  0.000096  -0.000040  0.000000
  0.000000  0.000000  0.000000

  -0.000013  0.000032  0.000000
  0.000032  -0.000086  0.000000
  0.000000  0.000000  0.000000

  -0.000014  0.000035  0.000000
  0.000035  -0.000083  0.000000
  0.000000  0.000000  0.000000

  -0.000150  0.000107  0.000000
  0.000107  -0.000080  0.000000
  0.000000  0.000000  0.000000

  -0.000156  0.000105  0.000000
  0.000105  -0.000070  0.000000
  0.000000  0.000000  0.000000

  -0.000272  0.000008  0.000000
  0.000008  -0.000001  0.000000
  0.000000  0.000000  0.000000

  0.000051  -0.000067  0.000000
  -0.000067  0.000090  0.000000
  0.000000  0.000000  0.000000

  0.000047  -0.000069  0.000000
  -0.000069  0.000089  0.000000
  0.000000  0.000000  0.000000

  0.000221  -0.000036  0.000000
  -0.000036  0.000007  0.000000
  0.000000  0.000000  0.000000

  0.000219  -0.000040  0.000000
  -0.000040  0.000002  0.000000
  0.000000  0.000000  0.000000

  0.000012  -0.000029  0.000000
  -0.000029  0.000075  0.000000
  0.000000  0.000000  0.000000

  0.000009  -0.000030  0.000000
  -0.000030  0.000075  0.000000
  0.000000  0.000000  0.000000

  0.000103  -0.000086  0.000000
  -0.000086  0.000073  0.000000
  0.000000  0.000000  0.000000

  0.000102  -0.000088  0.000000
  -0.000088  0.000069  0.000000
  0.000000  0.000000  0.000000

  0.000121  -0.000089  0.000000
  -0.000089  0.000067  0.000000
  0.000000  0.000000  0.000000

  0.000119  -0.000092  0.000000
  -0.000092  0.000063  0.000000
  0.000000  0.000000  0.000000

  0.000019  -0.000039  0.000000
  -0.000039  0.000082  0.000000
  0.000000  0.000000  0.000000

  0.000015  -0.000039  0.000000
  -0.000039  0.000082  0.000000
  0.000000  0.000000  0.000000

  0.000001  -0.000006  0.000000
  -0.000006  0.000038  0.000000
  0.000000  0.000000  0.000000

  -0.000000  -0.000005  0.000000
  -0.000005  0.000039  0.000000
  0.000000  0.000000  0.000000

  0.000117  -0.000088  0.000000
  -0.000088  0.000067  0.000000
  0.000000  0.000000  0.000000

  0.000115  -0.000090  0.000000
  -0.000090  0.000065  0.000000
  0.000000  0.000000  0.000000

  0.000193  -0.000070  0.000000
  -0.000070  0.000026  0.000000
  0.000000  0.000000  0.000000

  0.000192  -0.000072  0.000000
  -0.000072  0.000019  0.000000
  0.000000  0.000000  0.000000

  0.000001  -0.000005  0.000000
  -0.000005  0.000034  0.000000
  0.000000  0.000000  0.000000

  -0.000001  -0.000004  0.000000
  -0.000004  0.000035  0.000000
  0.000000  0.000000  0.000000

  0.000231  -0.000008  0.000000
  -0.000008  0.000001  0.000000
  0.000000  0.000000  0.000000

  0.000230  -0.000012  0.000000
  -0.000012  -0.000004  0.000000
  0.000000  0.000000  0.000000

  0.000034  -0.000055  0.000000
  -0.000055  0.000089  0.000000
  0.000000  0.000000  0.000000

  0.000031  -0.000056  0.000000
  -0.000056  0.000089  0.000000
  0.000000  0.000000  0.000000

  0.000000  -0.000000  0.000000
  -0.000000  0.000014  0.000000
  0.000000  0.000000  0.000000

  -0.000001  0.000001  0.000000
  0.000001  0.000014  0.000000
  0.000000  0.000000  0.000000

  0.000008  -0.000024  0.000000
  -0.000024  0.000068  0.000000
  0.000000  0.000000  0.000000

  0.000005  -0.000022  0.000000
  -0.000022  0.000069  0.000000
  0.000000  0.000000  0.000000

  0.000157  -0.000084  0.000000
  -0.000084  0.000046  0.000000
  0.000000  0.000000  0.000000

  0.000155  -0.000087  0.000000
  -0.000087  0.000043  0.000000
  0.000000  0.000000  0.000000

  0.000000  -0.000002  0.000000
  -0.000002  0.000025  0.000000
  0.000000  0.000000  0.000000

  -0.000001  -0.000001  0.000000
  -0.000001  0.000025  0.000000
  0.000000  0.000000  0.000000

  0.000060  -0.000072  0.000000
  -0.000072  0.000087  0.000000
  0.000000  0.000000  0.000000

  0.000057  -0.000073  0.000000
  -0.000073  0.000087  0.000000
  0.000000  0.000000  0.000000

  0.000023  -0.000043  0.000000
  -0.000043  0.000085  0.000000
  0.000000  0.000000  0.000000

  0.000020  -0.000044  0.000000
  -0.000044  0.000084  0.000000
  0.000000  0.000000  0.000000

  0.000006  -0.000018  0.000000
  -0.000018  0.000062  0.000000
  0.000000  0.000000  0.000000

  0.000003  -0.000018  0.000000
  -0.000018  0.000063  0.000000
  0.000000  0.000000  0.000000

  0.000225  -0.000023  0.000000
  -0.000023  0.000003  0.000000
  0.000000  0.000000  0.000000

  0.000225  -0.000022  0.000000
  -0.000022  -0.000004  0.000000
  0.000000  0.000000  0.000000

  0.000172  -0.000080  0.000000
  -0.000080  0.000038  0.000000
  0.000000  0.000000  0.000000

  0.000168  -0.000084  0.000000
  -0.000084  0.000035  0.000000
  0.000000  0.000000  0.000000

  0.000000  -0.000001  0.000000
  -0.000001  0.000019  0.000000
  0.000000  0.000000  0.000000

  -0.000001  -0.000000  0.000000
  -0.000000  0.000020  0.000000
  0.000000  0.000000  0.000000

  0.000082  -0.000082  0.000000
  -0.000082  0.000082  0.000000
  0.000000  0.000000  0.000000

  0.000077  -0.000083  0.000000
  -0.000083  0.000082  0.000000
  0.000000  0.000000  0.000000

  0.000166  -0.000081  0.000000
  -0.000081  0.000041  0.000000
  0.000000  0.000000  0.000000

  0.000166  -0.000083  0.000000
  -0.000083  0.000035  0.000000
  0.000000  0.000000  0.000000

  0.000095  -0.000085  0.000000
  -0.000085  0.000077  0.000000
  0.000000  0.000000  0.000000

  0.000089  -0.000087  0.000000
  -0.000087  0.000077  0.000000
  0.000000  0.000000  0.000000

  0.000209  -0.000055  0.000000
  -0.000055  0.000015  0.000000
  0.000000  0.000000  0.000000

  0.000209  -0.000056  0.000000
  -0.000056  0.000007  0.000000
  0.000000  0.000000  0.000000

  0.000015  -0.000033  0.000000
  -0.000033  0.000078  0.000000
  0.000000  0.000000  0.000000

  0.000012  -0.000034  0.000000
  -0.000034  0.000079  0.000000
  0.000000  0.000000  0.000000

  0.000003  -0.000012  0.000000
  -0.000012  0.000052  0.000000
  0.000000  0.000000  0.000000

  0.000001  -0.000012  0.000000
  -0.000012  0.000053  0.000000
  0.000000  0.000000  0.000000

  0.000228  -0.000015  0.000000
  -0.000015  0.000002  0.000000
  0.000000  0.000000  0.000000

  0.000227  -0.000017  0.000000
  -0.000017  -0.000004  0.000000
  0.000000  0.000000  0.000000

  0.000203  -0.000060  0.000000
  -0.000060  0.000019  0.000000
  0.000000  0.000000  0.000000

  0.000200  -0.000064  0.000000
  -0.000064  0.000014  0.000000
  0.000000  0.000000  0.000000

  0.000002  -0.000009  0.000000
  -0.000009  0.000046  0.000000
  0.000000  0.000000  0.000000

  -0.000000  -0.000007  0.000000
  -0.000007  0.000046  0.000000
  0.000000  0.000000  0.000000

  0.000049  -0.000065  0.000000
  -0.000065  0.000089  0.000000
  0.000000  0.000000  0.000000

  0.000045  -0.000066  0.000000
  -0.000066  0.000089  0.000000
  0.000000  0.000000  0.000000

  0.000029  -0.000050  0.000000
  -0.000050  0.000087  0.000000
  0.000000  0.000000  0.000000

  0.000024  -0.000049  0.000000
  -0.000049  0.000088  0.000000
  0.000000  0.000000  0.000000

  0.000070  -0.000077  0.000000
  -0.000077  0.000085  0.000000
  0.000000  0.000000  0.000000

  0.000068  -0.000079  0.000000
  -0.000079  0.000082  0.000000
  0.000000  0.000000  0.000000

  0.000215  -0.000046  0.000000
  -0.000046  0.000010  0.000000
  0.000000  0.000000  0.000000

  0.000214  -0.000049  0.000000
  -0.000049  0.000005  0.000000
  0.000000  0.000000  0.000000

  0.000040  -0.000059  0.000000
  -0.000059  0.000089  0.000000
  0.000000  0.000000  0.000000

  0.000035  -0.000059  0.000000
  -0.000059  0.000090  0.000000
  0.000000  0.000000  0.000000

  0.000137  -0.000088  0.000000
  -0.000088  0.000057  0.000000
  0.000000  0.000000  0.000000

  0.000136  -0.000090  0.000000
  -0.000090  0.000055  0.000000
  0.000000  0.000000  0.000000

  0.000182  -0.000076  0.000000
  -0.000076  0.000033  0.000000
  0.000000  0.000000  0.000000

  0.000182  -0.000076  0.000000
  -0.000076  0.000027  0.000000
  0.000000  0.000000  0.000000

  0.000004  -0.000014  0.000000
  -0.000014  0.000056  0.000000
  0.000000  0.000000  0.000000

  0.000002  -0.000014  0.000000
  -0.000014  0.000057  0.000000
  0.000000  0.000000  0.000000

  0.000001  -0.000005  0.000000
  -0.000005  0.000037  0.000000
  0.000000  0.000000  0.000000

  0.000000  -0.000005  0.000000
  -0.000005  0.000037  0.000000
  0.000000  0.000000  0.000000

  0.000115  -0.000088  0.000000
  -0.000088  0.000069  0.000000
  0.000000  0.000000  0.000000

  0.000116  -0.000089  0.000000
  -0.000089  0.000064  0.000000
  0.000000  0.000000  0.000000

  0.000227  -0.000015  0.000000
  -0.000015  0.000002  0.000000
  0.000000  0.000000  0.000000

  0.000226  -0.000011  0.000000
  -0.000011  -0.000003  0.000000
  0.000000  0.000000  0.000000

  0.000001  -0.000005  0.000000
  -0.000005  0.000033  0.000000
  0.000000  0.000000  0.000000

  -0.000001  -0.000003  0.000000
  -0.000003  0.000033  0.000000
  0.000000  0.000000  0.000000

  0.000207  -0.000053  0.000000
  -0.000053  0.000015  0.000000
  0.000000  0.000000  0.000000

  0.000208  -0.000050  0.000000
  -0.000050  0.000008  0.000000
  0.000000  0.000000  0.000000

  0.000120  -0.000088  0.000000
  -0.000088  0.000066  0.000000
  0.000000  0.000000  0.000000

  0.000113  -0.000090  0.000000
  -0.000090  0.000068  0.000000
  0.000000  0.000000  0.000000

  0.000172  -0.000080  0.000000
  -0.000080  0.000038  0.000000
  0.000000  0.000000  0.000000

  0.000172  -0.000079  0.000000
  -0.000079  0.000031  0.000000
  0.000000  0.000000  0.000000

  0.000067  -0.000075  0.000000
  -0.000075  0.000085  0.000000
  0.000000  0.000000  0.000000

  0.000061  -0.000076  0.000000
  -0.000076  0.000087  0.000000
  0.000000  0.000000  0.000000

  0.000012  -0.000029  0.000000
  -0.000029  0.000074  0.000000
  0.000000  0.000000  0.000000

  0.000008  -0.000027  0.000000
  -0.000027  0.000075  0.000000
  0.000000  0.000000  0.000000

  0.000167  -0.000080  0.000000
  -0.000080  0.000040  0.000000
  0.000000  0.000000  0.000000

  0.000157  -0.000076  0.000000
  -0.000076  0.000038  0.000000
  0.000000  0.000000  0.000000

  0.000058  -0.000071  0.000000
  -0.000071  0.000089  0.000000
  0.000000  0.000000  0.000000

  0.000058  -0.000073  0.000000
  -0.000073  0.000085  0.000000
  0.000000  0.000000  0.000000

  0.000225  -0.000029  0.000000
  -0.000029  0.000004  0.000000
  0.000000  0.000000  0.000000

  0.000225  -0.000029  0.000000
  -0.000029  -0.000003  0.000000
  0.000000  0.000000  0.000000

  0.000140  -0.000087  0.000000
  -0.000087  0.000056  0.000000
  0.000000  0.000000  0.000000

  0.000130  -0.000081  0.000000
  -0.000081  0.000051  0.000000
  0.000000  0.000000  0.000000

  0.000224  -0.000023  0.000000
  -0.000023  0.000004  0.000000
  0.000000  0.000000  0.000000

  0.000222  -0.000028  0.000000
  -0.000028  -0.000001  0.000000
  0.000000  0.000000  0.000000

  0.000040  -0.000059  0.000000
  -0.000059  0.000089  0.000000
  0.000000  0.000000  0.000000

  0.000039  -0.000060  0.000000
  -0.000060  0.000087  0.000000
  0.000000  0.000000  0.000000

  0.000154  -0.000085  0.000000
  -0.000085  0.000048  0.000000
  0.000000  0.000000  0.000000

  0.000156  -0.000084  0.000000
  -0.000084  0.000042  0.000000
  0.000000  0.000000  0.000000

  0.000002  -0.000009  0.000000
  -0.000009  0.000046  0.000000
  0.000000  0.000000  0.000000

  0.000001  -0.000009  0.000000
  -0.000009  0.000047  0.000000
  0.000000  0.000000  0.000000

  0.000129  -0.000089  0.000000
  -0.000089  0.000062  0.000000
  0.000000  0.000000  0.000000

  0.000126  -0.000093  0.000000
  -0.000093  0.000058  0.000000
  0.000000  0.000000  0.000000

  0.000000  -0.000000  0.000000
  -0.000000  0.000013  0.000000
  0.000000  0.000000  0.000000

  -0.000000  0.000001  0.000000
  0.000001  0.000013  0.000000
  0.000000  0.000000  0.000000

  0.000073  -0.000077  0.000000
  -0.000077  0.000084  0.000000
  0.000000  0.000000  0.000000

  0.000068  -0.000072  0.000000
  -0.000072  0.000078  0.000000
  0.000000  0.000000  0.000000

  0.000015  -0.000033  0.000000
  -0.000033  0.000077  0.000000
  0.000000  0.000000  0.000000

  0.000011  -0.000031  0.000000
  -0.000031  0.000078  0.000000
  0.000000  0.000000  0.000000

  0.000149  -0.000086  0.000000
  -0.000086  0.000051  0.000000
  0.000000  0.000000  0.000000

  0.000144  -0.000090  0.000000
  -0.000090  0.000049  0.000000
  0.000000  0.000000  0.000000

  0.000006  -0.000019  0.000000
  -0.000019  0.000063  0.000000
  0.000000  0.000000  0.000000

  0.000005  -0.000017  0.000000
  -0.000017  0.000059  0.000000
  0.000000  0.000000  0.000000

  0.000200  -0.000062  0.000000
  -0.000062  0.000021  0.000000
  0.000000  0.000000  0.000000

  0.000201  -0.000059  0.000000
  -0.000059  0.000014  0.000000
  0.000000  0.000000  0.000000

  0.000000  -0.000002  0.000000
  -0.000002  0.000026  0.000000
  0.000000  0.000000  0.000000

  -0.000001  -0.000001  0.000000
  -0.000001  0.000026  0.000000
  0.000000  0.000000  0.000000

  0.000091  -0.000084  0.000000
  -0.000084  0.000079  0.000000
  0.000000  0.000000  0.000000

  0.000093  -0.000085  0.000000
  -0.000085  0.000074  0.000000
  0.000000  0.000000  0.000000

  0.000231  -0.000008  0.000000
  -0.000008  0.000001  0.000000
  0.000000  0.000000  0.000000

  0.000230  -0.000006  0.000000
  -0.000006  -0.000004  0.000000
  0.000000  0.000000  0.000000

  0.000189  -0.000071  0.000000
  -0.000071  0.000028  0.000000
  0.000000  0.000000  0.000000

  0.000185  -0.000075  0.000000
  -0.000075  0.000024  0.000000
  0.000000  0.000000  0.000000

  0.000079  -0.000080  0.000000
  -0.000080  0.000083  0.000000
  0.000000  0.000000  0.000000

  0.000080  -0.000081  0.000000
  -0.000081  0.000078  0.000000
  0.000000  0.000000  0.000000

  0.000008  -0.000023  0.000000
  -0.000023  0.000069  0.000000
  0.000000  0.000000  0.000000

  0.000007  -0.000024  0.000000
  -0.000024  0.000069  0.000000
  0.000000  0.000000  0.000000

  0.000181  -0.000075  0.000000
  -0.000075  0.000032  0.000000
  0.000000  0.000000  0.000000

  0.000176  -0.000079  0.000000
  -0.000079  0.000032  0.000000
  0.000000  0.000000  0.000000

  0.000052  -0.000067  0.000000
  -0.000067  0.000089  0.000000
  0.000000  0.000000  0.000000

  0.000051  -0.000069  0.000000
  -0.000069  0.000085  0.000000
  0.000000  0.000000  0.000000

  0.000220  -0.000037  0.000000
  -0.000037  0.000008  0.000000
  0.000000  0.000000  0.000000

  0.000220  -0.000034  0.000000
  -0.000034  0.000002  0.000000
  0.000000  0.000000  0.000000

  0.000004  -0.000014  0.000000
  -0.000014  0.000055  0.000000
  0.000000  0.000000  0.000000

  0.000002  -0.000012  0.000000
  -0.000012  0.000055  0.000000
  0.000000  0.000000  0.000000

  0.000105  -0.000086  0.000000
  -0.000086  0.000072  0.000000
  0.000000  0.000000  0.000000

  0.000097  -0.000081  0.000000
  -0.000081  0.000069  0.000000
  0.000000  0.000000  0.000000

  0.000213  -0.000048  0.000000
  -0.000048  0.000012  0.000000
  0.000000  0.000000  0.000000

  0.000214  -0.000044  0.000000
  -0.000044  0.000006  0.000000
  0.000000  0.000000  0.000000

  0.000027  -0.000048  0.000000
  -0.000048  0.000087  0.000000
  0.000000  0.000000  0.000000

  0.000026  -0.000050  0.000000
  -0.000050  0.000085  0.000000
  0.000000  0.000000  0.000000

  0.000019  -0.000039  0.000000
  -0.000039  0.000082  0.000000
  0.000000  0.000000  0.000000

  0.000018  -0.000040  0.000000
  -0.000040  0.000080  0.000000
  0.000000  0.000000  0.000000

  0.000190  -0.000069  0.000000
  -0.000069  0.000026  0.000000
  0.000000  0.000000  0.000000

  0.000192  -0.000065  0.000000
  -0.000065  0.000020  0.000000
  0.000000  0.000000  0.000000

  0.000008  -0.000022  0.000000
  -0.000022  0.000067  0.000000
  0.000000  0.000000  0.000000

  0.000005  -0.000022  0.000000
  -0.000022  0.000068  0.000000
  0.000000  0.000000  0.000000

  0.000159  -0.000083  0.000000
  -0.000083  0.000045  0.000000
  0.000000  0.000000  0.000000

  0.000148  -0.000078  0.000000
  -0.000078  0.000041  0.000000
  0.000000  0.000000  0.000000

  0.000002  -0.000010  0.000000
  -0.000010  0.000048  0.000000
  0.000000  0.000000  0.000000

  0.000001  -0.000010  0.000000
  -0.000010  0.000049  0.000000
  0.000000  0.000000  0.000000

  0.000032  -0.000053  0.000000
  -0.000053  0.000088  0.000000
  0.000000  0.000000  0.000000

  0.000030  -0.000054  0.000000
  -0.000054  0.000087  0.000000
  0.000000  0.000000  0.000000

  0.000000  -0.000000  0.000000
  -0.000000  0.000012  0.000000
  0.000000  0.000000  0.000000

  -0.000001  0.000001  0.000000
  0.000001  0.000012  0.000000
  0.000000  0.000000  0.000000

  0.000005  -0.000017  0.000000
  -0.000017  0.000060  0.000000
  0.000000  0.000000  0.000000

  0.000003  -0.000017  0.000000
  -0.000017  0.000061  0.000000
  0.000000  0.000000  0.000000

  0.000223  -0.000025  0.000000
  -0.000025  0.000004  0.000000
  0.000000  0.000000  0.000000

  0.000224  -0.000023  0.000000
  -0.000023  -0.000003  0.000000
  0.000000  0.000000  0.000000

  0.000198  -0.000065  0.000000
  -0.000065  0.000022  0.000000
  0.000000  0.000000  0.000000

  0.000197  -0.000068  0.000000
  -0.000068  0.000017  0.000000
  0.000000  0.000000  0.000000

  0.000063  -0.000073  0.000000
  -0.000073  0.000087  0.000000
  0.000000  0.000000  0.000000

  0.000058  -0.000069  0.000000
  -0.000069  0.000081  0.000000
  0.000000  0.000000  0.000000

  0.000222  -0.000028  0.000000
  -0.000028  0.000005  0.000000
  0.000000  0.000000  0.000000

  0.000220  -0.000033  0.000000
  -0.000033  0.000002  0.000000
  0.000000  0.000000  0.000000

  0.000189  -0.000071  0.000000
  -0.000071  0.000028  0.000000
  0.000000  0.000000  0.000000

  0.000190  -0.000070  0.000000
  -0.000070  0.000020  0.000000
  0.000000  0.000000  0.000000

  0.000001  -0.000005  0.000000
  -0.000005  0.000036  0.000000
  0.000000  0.000000  0.000000

  0.000000  -0.000004  0.000000
  -0.000004  0.000033  0.000000
  0.000000  0.000000  0.000000

  0.000212  -0.000052  0.000000
  -0.000052  0.000013  0.000000
  0.000000  0.000000  0.000000

  0.000211  -0.000054  0.000000
  -0.000054  0.000006  0.000000
  0.000000  0.000000  0.000000

  0.000001  -0.000007  0.000000
  -0.000007  0.000039  0.000000
  0.000000  0.000000  0.000000

  0.000001  -0.000005  0.000000
  -0.000005  0.000038  0.000000
  0.000000  0.000000  0.000000

  0.000116  -0.000088  0.000000
  -0.000088  0.000068  0.000000
  0.000000  0.000000  0.000000

  0.000111  -0.000091  0.000000
  -0.000091  0.000068  0.000000
  0.000000  0.000000  0.000000

  0.000220  -0.000040  0.000000
  -0.000040  0.000008  0.000000
  0.000000  0.000000  0.000000

  0.000220  -0.000040  0.000000
  -0.000040  0.000001  0.000000
  0.000000  0.000000  0.000000

  0.000011  -0.000028  0.000000
  -0.000028  0.000073  0.000000
  0.000000  0.000000  0.000000

  0.000008  -0.000027  0.000000
  -0.000027  0.000074  0.000000
  0.000000  0.000000  0.000000

  0.000008  -0.000022  0.000000
  -0.000022  0.000066  0.000000
  0.000000  0.000000  0.000000

  0.000005  -0.000019  0.000000
  -0.000019  0.000067  0.000000
  0.000000  0.000000  0.000000

  0.000120  -0.000088  0.000000
  -0.000088  0.000066  0.000000
  0.000000  0.000000  0.000000

  0.000122  -0.000088  0.000000
  -0.000088  0.000060  0.000000
  0.000000  0.000000  0.000000

  0.000176  -0.000079  0.000000
  -0.000079  0.000036  0.000000
  0.000000  0.000000  0.000000

  0.000175  -0.000081  0.000000
  -0.000081  0.000030  0.000000
  0.000000  0.000000  0.000000

  0.000068  -0.000075  0.000000
  -0.000075  0.000086  0.000000
  0.000000  0.000000  0.000000

  0.000066  -0.000077  0.000000
  -0.000077  0.000083  0.000000
  0.000000  0.000000  0.000000

  0.000214  -0.000046  0.000000
  -0.000046  0.000011  0.000000
  0.000000  0.000000  0.000000

  0.000214  -0.000042  0.000000
  -0.000042  0.000004  0.000000
  0.000000  0.000000  0.000000

  0.000020  -0.000040  0.000000
  -0.000040  0.000082  0.000000
  0.000000  0.000000  0.000000

  0.000018  -0.000041  0.000000
  -0.000041  0.000082  0.000000
  0.000000  0.000000  0.000000

  0.000047  -0.000064  0.000000
  -0.000064  0.000089  0.000000
  0.000000  0.000000  0.000000

  0.000042  -0.000065  0.000000
  -0.000065  0.000090  0.000000
  0.000000  0.000000  0.000000

  0.000028  -0.000048  0.000000
  -0.000048  0.000086  0.000000
  0.000000  0.000000  0.000000

  0.000023  -0.000048  0.000000
  -0.000048  0.000087  0.000000
  0.000000  0.000000  0.000000

  0.000136  -0.000088  0.000000
  -0.000088  0.000058  0.000000
  0.000000  0.000000  0.000000

  0.000131  -0.000092  0.000000
  -0.000092  0.000057  0.000000
  0.000000  0.000000  0.000000

  0.000003  -0.000013  0.000000
  -0.000013  0.000054  0.000000
  0.000000  0.000000  0.000000

  0.000002  -0.000013  0.000000
  -0.000013  0.000055  0.000000
  0.000000  0.000000  0.000000

  0.000228  -0.000010  0.000000
  -0.000010  0.000002  0.000000
  0.000000  0.000000  0.000000

  0.000228  -0.000006  0.000000
  -0.000006  -0.000003  0.000000
  0.000000  0.000000  0.000000

  0.000183  -0.000073  0.000000
  -0.000073  0.000031  0.000000
  0.000000  0.000000  0.000000

  0.000170  -0.000069  0.000000
  -0.000069  0.000029  0.000000
  0.000000  0.000000  0.000000

  0.000055  -0.000069  0.000000
  -0.000069  0.000089  0.000000
  0.000000  0.000000  0.000000

  0.000051  -0.000071  0.000000
  -0.000071  0.000088  0.000000
  0.000000  0.000000  0.000000

  0.000228  -0.000017  0.000000
  -0.000017  0.000002  0.000000
  0.000000  0.000000  0.000000

  0.000228  -0.000017  0.000000
  -0.000017  -0.000006  0.000000
  0.000000  0.000000  0.000000

  0.000202  -0.000060  0.000000
  -0.000060  0.000019  0.000000
  0.000000  0.000000  0.000000

  0.000203  -0.000058  0.000000
  -0.000058  0.000012  0.000000
  0.000000  0.000000  0.000000

  0.000000  -0.000003  0.000000
  -0.000003  0.000028  0.000000
  0.000000  0.000000  0.000000

  -0.000001  -0.000002  0.000000
  -0.000002  0.000029  0.000000
  0.000000  0.000000  0.000000

  0.000016  -0.000034  0.000000
  -0.000034  0.000078  0.000000
  0.000000  0.000000  0.000000

  0.000013  -0.000031  0.000000
  -0.000031  0.000074  0.000000
  0.000000  0.000000  0.000000

  0.000145  -0.000086  0.000000
  -0.000086  0.000053  0.000000
  0.000000  0.000000  0.000000

  0.000147  -0.000087  0.000000
  -0.000087  0.000047  0.000000
  0.000000  0.000000  0.000000

  0.000000  -0.000001  0.000000
  -0.000001  0.000018  0.000000
  0.000000  0.000000  0.000000

  -0.000001  0.000000  0.000000
  0.000000  0.000018  0.000000
  0.000000  0.000000  0.000000

  0.000094  -0.000085  0.000000
  -0.000085  0.000078  0.000000
  0.000000  0.000000  0.000000

  0.000094  -0.000086  0.000000
  -0.000086  0.000074  0.000000
  0.000000  0.000000  0.000000

  0.000079  -0.000081  0.000000
  -0.000081  0.000084  0.000000
  0.000000  0.000000  0.000000

  0.000076  -0.000083  0.000000
  -0.000083  0.000081  0.000000
  0.000000  0.000000  0.000000

  0.000234  -0.000006  0.000000
  -0.000006  0.000001  0.000000
  0.000000  0.000000  0.000000

  0.000234  -0.000005  0.000000
  -0.000005  -0.000004  0.000000
  0.000000  0.000000  0.000000

  0.000223  -0.000026  0.000000
  -0.000026  0.000004  0.000000
  0.000000  0.000000  0.000000

  0.000223  -0.000029  0.000000
  -0.000029  -0.000002  0.000000
  0.000000  0.000000  0.000000

  0.000041  -0.000060  0.000000
  -0.000060  0.000089  0.000000
  0.000000  0.000000  0.000000

  0.000038  -0.000061  0.000000
  -0.000061  0.000089  0.000000
  0.000000  0.000000  0.000000

  0.000184  -0.000074  0.000000
  -0.000074  0.000031  0.000000
  0.000000  0.000000  0.000000

  0.000184  -0.000075  0.000000
  -0.000075  0.000025  0.000000
  0.000000  0.000000  0.000000

  0.000223  -0.000031  0.000000
  -0.000031  0.000005  0.000000
  0.000000  0.000000  0.000000

  0.000223  -0.000030  0.000000
  -0.000030  -0.000002  0.000000
  0.000000  0.000000  0.000000

  0.000135  -0.000088  0.000000
  -0.000088  0.000059  0.000000
  0.000000  0.000000  0.000000

  0.000136  -0.000089  0.000000
  -0.000089  0.000053  0.000000
  0.000000  0.000000  0.000000

  0.000000  0.000000  0.000000
  0.000000  0.000011  0.000000
  0.000000  0.000000  0.000000

  -0.000001  0.000001  0.000000
  0.000001  0.000011  0.000000
  0.000000  0.000000  0.000000

  0.000070  -0.000076  0.000000
  -0.000076  0.000085  0.000000
  0.000000  0.000000  0.000000

  0.000064  -0.000078  0.000000
  -0.000078  0.000086  0.000000
  0.000000  0.000000  0.000000

  0.000014  -0.000032  0.000000
  -0.000032  0.000077  0.000000
  0.000000  0.000000  0.000000

  0.000011  -0.000033  0.000000
  -0.000033  0.000077  0.000000
  0.000000  0.000000  0.000000

  0.000002  -0.000010  0.000000
  -0.000010  0.000047  0.000000
  0.000000  0.000000  0.000000

  0.000000  -0.000008  0.000000
  -0.000008  0.000048  0.000000
  0.000000  0.000000  0.000000

  0.000047  -0.000064  0.000000
  -0.000064  0.000090  0.000000
  0.000000  0.000000  0.000000

  0.000047  -0.000066  0.000000
  -0.000066  0.000087  0.000000
  0.000000  0.000000  0.000000

  0.000010  -0.000026  0.000000
  -0.000026  0.000072  0.000000
  0.000000  0.000000  0.000000

  0.000010  -0.000027  0.000000
  -0.000027  0.000071  0.000000
  0.000000  0.000000  0.000000

  0.000170  -0.000081  0.000000
  -0.000081  0.000040  0.000000
  0.000000  0.000000  0.000000

  0.000168  -0.000085  0.000000
  -0.000085  0.000035  0.000000
  0.000000  0.000000  0.000000

  0.000096  -0.000085  0.000000
  -0.000085  0.000076  0.000000
  0.000000  0.000000  0.000000

  0.000093  -0.000087  0.000000
  -0.000087  0.000075  0.000000
  0.000000  0.000000  0.000000

  0.000173  -0.000078  0.000000
  -0.000078  0.000037  0.000000
  0.000000  0.000000  0.000000

  0.000168  -0.000083  0.000000
  -0.000083  0.000036  0.000000
  0.000000  0.000000  0.000000

  0.000000  -0.000001  0.000000
  -0.000001  0.000019  0.000000
  0.000000  0.000000  0.000000

  -0.000000  0.000000  0.000000
  0.000000  0.000018  0.000000
  0.000000  0.000000  0.000000

  0.000112  -0.000088  0.000000
  -0.000088  0.000070  0.000000
  0.000000  0.000000  0.000000

  0.000113  -0.000089  0.000000
  -0.000089  0.000065  0.000000
  0.000000  0.000000  0.000000

  0.000210  -0.000052  0.000000
  -0.000052  0.000014  0.000000
  0.000000  0.000000  0.000000

  0.000204  -0.000058  0.000000
  -0.000058  0.000012  0.000000
  0.000000  0.000000  0.000000

  0.000225  -0.000017  0.000000
  -0.000017  0.000003  0.000000
  0.000000  0.000000  0.000000

  0.000224  -0.000012  0.000000
  -0.000012  -0.000001  0.000000
  0.000000  0.000000  0.000000

  0.000016  -0.000035  0.000000
  -0.000035  0.000079  0.000000
  0.000000  0.000000  0.000000

  0.000013  -0.000035  0.000000
  -0.000035  0.000079  0.000000
  0.000000  0.000000  0.000000

  0.000003  -0.000013  0.000000
  -0.000013  0.000053  0.000000
  0.000000  0.000000  0.000000

  0.000001  -0.000011  0.000000
  -0.000011  0.000054  0.000000
  0.000000  0.000000  0.000000

  0.000106  -0.000087  0.000000
  -0.000087  0.000073  0.000000
  0.000000  0.000000  0.000000

  0.000103  -0.000091  0.000000
  -0.000091  0.000069  0.000000
  0.000000  0.000000  0.000000

  0.000123  -0.000088  0.000000
  -0.000088  0.000065  0.000000
  0.000000  0.000000  0.000000

  0.000120  -0.000091  0.000000
  -0.000091  0.000063  0.000000
  0.000000  0.000000  0.000000

  0.000053  -0.000068  0.000000
  -0.000068  0.000088  0.000000
  0.000000  0.000000  0.000000

  0.000046  -0.000068  0.000000
  -0.000068  0.000090  0.000000
  0.000000  0.000000  0.000000

  0.000218  -0.000039  0.000000
  -0.000039  0.000008  0.000000
  0.000000  0.000000  0.000000

  0.000219  -0.000034  0.000000
  -0.000034  0.000002  0.000000
  0.000000  0.000000  0.000000

  0.000026  -0.000047  0.000000
  -0.000047  0.000086  0.000000
  0.000000  0.000000  0.000000

  0.000026  -0.000048  0.000000
  -0.000048  0.000084  0.000000
  0.000000  0.000000  0.000000

  0.000191  -0.000069  0.000000
  -0.000069  0.000026  0.000000
  0.000000  0.000000  0.000000

  0.000185  -0.000074  0.000000
  -0.000074  0.000025  0.000000
  0.000000  0.000000  0.000000

  0.000086  -0.000083  0.000000
  -0.000083  0.000081  0.000000
  0.000000  0.000000  0.000000

  0.000085  -0.000085  0.000000
  -0.000085  0.000078  0.000000
  0.000000  0.000000  0.000000

  0.000020  -0.000040  0.000000
  -0.000040  0.000082  0.000000
  0.000000  0.000000  0.000000

  0.000015  -0.000039  0.000000
  -0.000039  0.000083  0.000000
  0.000000  0.000000  0.000000

  0.000001  -0.000007  0.000000
  -0.000007  0.000041  0.000000
  0.000000  0.000000  0.000000

  -0.000001  -0.000006  0.000000
  -0.000006  0.000041  0.000000
  0.000000  0.000000  0.000000

  0.000079  -0.000080  0.000000
  -0.000080  0.000082  0.000000
  0.000000  0.000000  0.000000

  0.000072  -0.000080  0.000000
  -0.000080  0.000085  0.000000
  0.000000  0.000000  0.000000

  0.000008  -0.000022  0.000000
  -0.000022  0.000067  0.000000
  0.000000  0.000000  0.000000

  0.000007  -0.000023  0.000000
  -0.000023  0.000067  0.000000
  0.000000  0.000000  0.000000

  0.000160  -0.000084  0.000000
  -0.000084  0.000045  0.000000
  0.000000  0.000000  0.000000

  0.000159  -0.000086  0.000000
  -0.000086  0.000040  0.000000
  0.000000  0.000000  0.000000

  0.000233  -0.000006  0.000000
  -0.000006  0.000001  0.000000
  0.000000  0.000000  0.000000

  0.000231  -0.000011  0.000000
  -0.000011  -0.000003  0.000000
  0.000000  0.000000  0.000000

  0.000034  -0.000054  0.000000
  -0.000054  0.000087  0.000000
  0.000000  0.000000  0.000000

  0.000031  -0.000050  0.000000
  -0.000050  0.000082  0.000000
  0.000000  0.000000  0.000000

  0.000146  -0.000087  0.000000
  -0.000087  0.000052  0.000000
  0.000000  0.000000  0.000000

  0.000142  -0.000090  0.000000
  -0.000090  0.000050  0.000000
  0.000000  0.000000  0.000000

  0.000000  -0.000003  0.000000
  -0.000003  0.000027  0.000000
  0.000000  0.000000  0.000000

  -0.000001  -0.000001  0.000000
  -0.000001  0.000027  0.000000
  0.000000  0.000000  0.000000

  0.000006  -0.000018  0.000000
  -0.000018  0.000061  0.000000
  0.000000  0.000000  0.000000

  0.000003  -0.000016  0.000000
  -0.000016  0.000062  0.000000
  0.000000  0.000000  0.000000

  0.000063  -0.000074  0.000000
  -0.000074  0.000088  0.000000
  0.000000  0.000000  0.000000

  0.000060  -0.000076  0.000000
  -0.000076  0.000087  0.000000
  0.000000  0.000000  0.000000

  0.000206  -0.000058  0.000000
  -0.000058  0.000017  0.000000
  0.000000  0.000000  0.000000

  0.000206  -0.000060  0.000000
  -0.000060  0.000011  0.000000
  0.000000  0.000000  0.000000

  0.000017  -0.000037  0.000000
  -0.000037  0.000080  0.000000
  0.000000  0.000000  0.000000

  0.000014  -0.000037  0.000000
  -0.000037  0.000082  0.000000
  0.000000  0.000000  0.000000

  0.000142  -0.000087  0.000000
  -0.000087  0.000054  0.000000
  0.000000  0.000000  0.000000

  0.000144  -0.000086  0.000000
  -0.000086  0.000048  0.000000
  0.000000  0.000000  0.000000

  0.000228  -0.000013  0.000000
  -0.000013  0.000001  0.000000
  0.000000  0.000000  0.000000

  0.000227  -0.000013  0.000000
  -0.000013  -0.000003  0.000000
  0.000000  0.000000  0.000000

  0.000198  -0.000064  0.000000
  -0.000064  0.000021  0.000000
  0.000000  0.000000  0.000000

  0.000198  -0.000066  0.000000
  -0.000066  0.000016  0.000000
  0.000000  0.000000  0.000000

  0.000161  -0.000082  0.000000
  -0.000082  0.000043  0.000000
  0.000000  0.000000  0.000000

  0.000152  -0.000077  0.000000
  -0.000077  0.000040  0.000000
  0.000000  0.000000  0.000000

  0.000089  -0.000084  0.000000
  -0.000084  0.000080  0.000000
  0.000000  0.000000  0.000000

  0.000087  -0.000086  0.000000
  -0.000086  0.000077  0.000000
  0.000000  0.000000  0.000000

  0.000043  -0.000061  0.000000
  -0.000061  0.000089  0.000000
  0.000000  0.000000  0.000000

  0.000039  -0.000057  0.000000
  -0.000057  0.000083  0.000000
  0.000000  0.000000  0.000000

  0.000000  -0.000000  0.000000
  -0.000000  0.000016  0.000000
  0.000000  0.000000  0.000000

  -0.000000  0.000000  0.000000
  0.000000  0.000016  0.000000
  0.000000  0.000000  0.000000

  0.000084  -0.000082  0.000000
  -0.000082  0.000081  0.000000
  0.000000  0.000000  0.000000

  0.000081  -0.000084  0.000000
  -0.000084  0.000081  0.000000
  0.000000  0.000000  0.000000

  0.000036  -0.000056  0.000000
  -0.000056  0.000089  0.000000
  0.000000  0.000000  0.000000

  0.000031  -0.000056  0.000000
  -0.000056  0.000089  0.000000
  0.000000  0.000000  0.000000

  0.000186  -0.000073  0.000000
  -0.000073  0.000030  0.000000
  0.000000  0.000000  0.000000

  0.000187  -0.000070  0.000000
  -0.000070  0.000023  0.000000
  0.000000  0.000000  0.000000

  0.000059  -0.000071  0.000000
  -0.000071  0.000088  0.000000
  0.000000  0.000000  0.000000

  0.000054  -0.000072  0.000000
  -0.000072  0.000089  0.000000
  0.000000  0.000000  0.000000

  0.000133  -0.000089  0.000000
  -0.000089  0.000060  0.000000
  0.000000  0.000000  0.000000

  0.000131  -0.000092  0.000000
  -0.000092  0.000055  0.000000
  0.000000  0.000000  0.000000

  0.000004  -0.000016  0.000000
  -0.000016  0.000058  0.000000
  0.000000  0.000000  0.000000

  0.000002  -0.000014  0.000000
  -0.000014  0.000058  0.000000
  0.000000  0.000000  0.000000

  0.000072  -0.000078  0.000000
  -0.000078  0.000085  0.000000
  0.000000  0.000000  0.000000

  0.000069  -0.000081  0.000000
  -0.000081  0.000084  0.000000
  0.000000  0.000000  0.000000

  0.000212  -0.000050  0.000000
  -0.000050  0.000012  0.000000
  0.000000  0.000000  0.000000

  0.000212  -0.000051  0.000000
  -0.000051  0.000007  0.000000
  0.000000  0.000000  0.000000

  0.000168  -0.000080  0.000000
  -0.000080  0.000040  0.000000
  0.000000  0.000000  0.000000

  0.000170  -0.000079  0.000000
  -0.000079  0.000033  0.000000
  0.000000  0.000000  0.000000

  0.000045  -0.000063  0.000000
  -0.000063  0.000090  0.000000
  0.000000  0.000000  0.000000

  0.000041  -0.000065  0.000000
  -0.000065  0.000089  0.000000
  0.000000  0.000000  0.000000

  0.000026  -0.000047  0.000000
  -0.000047  0.000086  0.000000
  0.000000  0.000000  0.000000

  0.000022  -0.000048  0.000000
  -0.000048  0.000087  0.000000
  0.000000  0.000000  0.000000

  0.000000  -0.000002  0.000000
  -0.000002  0.000021  0.000000
  0.000000  0.000000  0.000000

  -0.000001  0.000000  0.000000
  0.000000  0.000021  0.000000
  0.000000  0.000000  0.000000

  0.000065  -0.000074  0.000000
  -0.000074  0.000087  0.000000
  0.000000  0.000000  0.000000

  0.000065  -0.000076  0.000000
  -0.000076  0.000083  0.000000
  0.000000  0.000000  0.000000

  0.000222  -0.000030  0.000000
  -0.000030  0.000005  0.000000
  0.000000  0.000000  0.000000

  0.000220  -0.000035  0.000000
  -0.000035  0.000002  0.000000
  0.000000  0.000000  0.000000

  0.000006  -0.000020  0.000000
  -0.000020  0.000064  0.000000
  0.000000  0.000000  0.000000

  0.000004  -0.000019  0.000000
  -0.000019  0.000065  0.000000
  0.000000  0.000000  0.000000

  0.000227  -0.000020  0.000000
  -0.000020  0.000003  0.000000
  0.000000  0.000000  0.000000

  0.000227  -0.000022  0.000000
  -0.000022  -0.000005  0.000000
  0.000000  0.000000  0.000000

  0.000009  -0.000025  0.000000
  -0.000025  0.000070  0.000000
  0.000000  0.000000  0.000000

  0.000006  -0.000024  0.000000
  -0.000024  0.000070  0.000000
  0.000000  0.000000  0.000000

  0.000151  -0.000085  0.000000
  -0.000085  0.000049  0.000000
  0.000000  0.000000  0.000000

  0.000151  -0.000087  0.000000
  -0.000087  0.000044  0.000000
  0.000000  0.000000  0.000000

  0.000105  -0.000086  0.000000
  -0.000086  0.000072  0.000000
  0.000000  0.000000  0.000000

  0.000107  -0.000087  0.000000
  -0.000087  0.000065  0.000000
  0.000000  0.000000  0.000000

  0.000031  -0.000051  0.000000
  -0.000051  0.000087  0.000000
  0.000000  0.000000  0.000000

  0.000029  -0.000053  0.000000
  -0.000053  0.000086  0.000000
  0.000000  0.000000  0.000000

  0.000000  -0.000000  0.000000
  -0.000000  0.000010  0.000000
  0.000000  0.000000  0.000000

  -0.000002  0.000002  0.000000
  0.000002  0.000010  0.000000
  0.000000  0.000000  0.000000

  0.000099  -0.000085  0.000000
  -0.000085  0.000075  0.000000
  0.000000  0.000000  0.000000

  0.000093  -0.000081  0.000000
  -0.000081  0.000069  0.000000
  0.000000  0.000000  0.000000

  0.000127  -0.000087  0.000000
  -0.000087  0.000062  0.000000
  0.000000  0.000000  0.000000

  0.000121  -0.000090  0.000000
  -0.000090  0.000064  0.000000
  0.000000  0.000000  0.000000

  0.000179  -0.000076  0.000000
  -0.000076  0.000033  0.000000
  0.000000  0.000000  0.000000

  0.000178  -0.000078  0.000000
  -0.000078  0.000030  0.000000
  0.000000  0.000000  0.000000

  0.000218  -0.000042  0.000000
  -0.000042  0.000009  0.000000
  0.000000  0.000000  0.000000

  0.000218  -0.000041  0.000000
  -0.000041  0.000001  0.000000
  0.000000  0.000000  0.000000

  0.000013  -0.000030  0.000000
  -0.000030  0.000076  0.000000
  0.000000  0.000000  0.000000

  0.000010  -0.000031  0.000000
  -0.000031  0.000076  0.000000
  0.000000  0.000000  0.000000

  0.000194  -0.000067  0.000000
  -0.000067  0.000024  0.000000
  0.000000  0.000000  0.000000

  0.000191  -0.000071  0.000000
  -0.000071  0.000020  0.000000
  0.000000  0.000000  0.000000

  0.000002  -0.000008  0.000000
  -0.000008  0.000044  0.000000
  0.000000  0.000000  0.000000

  -0.000000  -0.000007  0.000000
  -0.000007  0.000044  0.000000
  0.000000  0.000000  0.000000

  0.000001  -0.000004  0.000000
  -0.000004  0.000030  0.000000
  0.000000  0.000000  0.000000

  -0.000001  -0.000002  0.000000
  -0.000002  0.000031  0.000000
  0.000000  0.000000  0.000000

  0.000113  -0.000088  0.000000
  -0.000088  0.000069  0.000000
  0.000000  0.000000  0.000000

  0.000108  -0.000091  0.000000
  -0.000091  0.000069  0.000000
  0.000000  0.000000  0.000000

  0.000088  -0.000083  0.000000
  -0.000083  0.000079  0.000000
  0.000000  0.000000  0.000000

  0.000082  -0.000084  0.000000
  -0.000084  0.000081  0.000000
  0.000000  0.000000  0.000000

  0.000240  -0.000002  0.000000
  -0.000002  0.000002  0.000000
  0.000000  0.000000  0.000000

  0.000032  -0.000052  0.000000
  -0.000052  0.000087  0.000000
  0.000000  0.000000  0.000000

  0.000027  -0.000052  0.000000
  -0.000052  0.000089  0.000000
  0.000000  0.000000  0.000000

  0.000082  -0.000081  0.000000
  -0.000081  0.000083  0.000000
  0.000000  0.000000  0.000000

  0.000082  -0.000083  0.000000
  -0.000083  0.000078  0.000000
  0.000000  0.000000  0.000000

  0.000009  -0.000025  0.000000
  -0.000025  0.000070  0.000000
  0.000000  0.000000  0.000000

  0.000008  -0.000026  0.000000
  -0.000026  0.000070  0.000000
  0.000000  0.000000  0.000000

  0.000195  -0.000066  0.000000
  -0.000066  0.000024  0.000000
  0.000000  0.000000  0.000000

  0.000196  -0.000062  0.000000
  -0.000062  0.000018  0.000000
  0.000000  0.000000  0.000000

  0.000000  -0.000001  0.000000
  -0.000001  0.000022  0.000000
  0.000000  0.000000  0.000000

  -0.000000  -0.000001  0.000000
  -0.000001  0.000022  0.000000
  0.000000  0.000000  0.000000

  0.000215  -0.000043  0.000000
  -0.000043  0.000010  0.000000
  0.000000  0.000000  0.000000

  0.000213  -0.000048  0.000000
  -0.000048  0.000006  0.000000
  0.000000  0.000000  0.000000

  0.000143  -0.000088  0.000000
  -0.000088  0.000055  0.000000
  0.000000  0.000000  0.000000

  0.000142  -0.000091  0.000000
  -0.000091  0.000050  0.000000
  0.000000  0.000000  0.000000

  0.000006  -0.000020  0.000000
  -0.000020  0.000064  0.000000
  0.000000  0.000000  0.000000

  0.000006  -0.000020  0.000000
  -0.000020  0.000063  0.000000
  0.000000  0.000000  0.000000

  0.000210  -0.000052  0.000000
  -0.000052  0.000014  0.000000
  0.000000  0.000000  0.000000

  0.000210  -0.000048  0.000000
  -0.000048  0.000008  0.000000
  0.000000  0.000000  0.000000

  0.000023  -0.000043  0.000000
  -0.000043  0.000084  0.000000
  0.000000  0.000000  0.000000

  0.000018  -0.000042  0.000000
  -0.000042  0.000085  0.000000
  0.000000  0.000000  0.000000

  0.000002  -0.000008  0.000000
  -0.000008  0.000044  0.000000
  0.000000  0.000000  0.000000

  0.000001  -0.000008  0.000000
  -0.000008  0.000044  0.000000
  0.000000  0.000000  0.000000

  0.000026  -0.000046  0.000000
  -0.000046  0.000085  0.000000
  0.000000  0.000000  0.000000

  0.000021  -0.000044  0.000000
  -0.000044  0.000087  0.000000
  0.000000  0.000000  0.000000

  0.000193  -0.000067  0.000000
  -0.000067  0.000025  0.000000
  0.000000  0.000000  0.000000

  0.000194  -0.000066  0.000000
  -0.000066  0.000017  0.000000
  0.000000  0.000000  0.000000

  0.000004  -0.000014  0.000000
  -0.000014  0.000056  0.000000
  0.000000  0.000000  0.000000

  0.000003  -0.000015  0.000000
  -0.000015  0.000056  0.000000
  0.000000  0.000000  0.000000

  0.000100  -0.000087  0.000000
  -0.000087  0.000076  0.000000
  0.000000  0.000000  0.000000

  0.000096  -0.000090  0.000000
  -0.000090  0.000074  0.000000
  0.000000  0.000000  0.000000

  0.000204  -0.000058  0.000000
  -0.000058  0.000018  0.000000
  0.000000  0.000000  0.000000

  0.000199  -0.000064  0.000000
  -0.000064  0.000016  0.000000
  0.000000  0.000000  0.000000

  0.000056  -0.000070  0.000000
  -0.000070  0.000089  0.000000
  0.000000  0.000000  0.000000

  0.000056  -0.000072  0.000000
  -0.000072  0.000085  0.000000
  0.000000  0.000000  0.000000

  0.000219  -0.000038  0.000000
  -0.000038  0.000008  0.000000
  0.000000  0.000000  0.000000

  0.000214  -0.000044  0.000000
  -0.000044  0.000006  0.000000
  0.000000  0.000000  0.000000

  0.000150  -0.000085  0.000000
  -0.000085  0.000049  0.000000
  0.000000  0.000000  0.000000

  0.000146  -0.000089  0.000000
  -0.000089  0.000049  0.000000
  0.000000  0.000000  0.000000

  0.000003  -0.000012  0.000000
  -0.000012  0.000051  0.000000
  0.000000  0.000000  0.000000

  0.000001  -0.000010  0.000000
  -0.000010  0.000052  0.000000
  0.000000  0.000000  0.000000

  0.000045  -0.000063  0.000000
  -0.000063  0.000089  0.000000
  0.000000  0.000000  0.000000

  0.000045  -0.000064  0.000000
  -0.000064  0.000086  0.000000
  0.000000  0.000000  0.000000

  0.000001  0.000001  0.000000
  0.000001  0.000008  0.000000
  0.000000  0.000000  0.000000

  -0.000003  0.000002  0.000000
  0.000002  0.000008  0.000000
  0.000000  0.000000  0.000000

  0.000074  -0.000078  0.000000
  -0.000078  0.000084  0.000000
  0.000000  0.000000  0.000000

  0.000073  -0.000080  0.000000
  -0.000080  0.000081  0.000000
  0.000000  0.000000  0.000000

  0.000224  -0.000020  0.000000
  -0.000020  0.000003  0.000000
  0.000000  0.000000  0.000000

  0.000222  -0.000026  0.000000
  -0.000026  0.000000  0.000000
  0.000000  0.000000  0.000000

  0.000036  -0.000056  0.000000
  -0.000056  0.000089  0.000000
  0.000000  0.000000  0.000000

  0.000035  -0.000058  0.000000
  -0.000058  0.000087  0.000000
  0.000000  0.000000  0.000000

  0.000001  -0.000005  0.000000
  -0.000005  0.000036  0.000000
  0.000000  0.000000  0.000000

  -0.000001  -0.000004  0.000000
  -0.000004  0.000037  0.000000
  0.000000  0.000000  0.000000

  0.000222  -0.000033  0.000000
  -0.000033  0.000006  0.000000
  0.000000  0.000000  0.000000

  0.000222  -0.000032  0.000000
  -0.000032  -0.000000  0.000000
  0.000000  0.000000  0.000000

  0.000131  -0.000088  0.000000
  -0.000088  0.000060  0.000000
  0.000000  0.000000  0.000000

  0.000134  -0.000087  0.000000
  -0.000087  0.000054  0.000000
  0.000000  0.000000  0.000000

  0.000001  -0.000003  0.000000
  -0.000003  0.000029  0.000000
  0.000000  0.000000  0.000000

  -0.000000  -0.000001  0.000000
  -0.000001  0.000029  0.000000
  0.000000  0.000000  0.000000

  0.000203  -0.000058  0.000000
  -0.000058  0.000018  0.000000
  0.000000  0.000000  0.000000

  0.000205  -0.000054  0.000000
  -0.000054  0.000013  0.000000
  0.000000  0.000000  0.000000

  0.000019  -0.000038  0.000000
  -0.000038  0.000080  0.000000
  0.000000  0.000000  0.000000

  0.000015  -0.000036  0.000000
  -0.000036  0.000082  0.000000
  0.000000  0.000000  0.000000

  0.000109  -0.000087  0.000000
  -0.000087  0.000071  0.000000
  0.000000  0.000000  0.000000

  0.000110  -0.000088  0.000000
  -0.000088  0.000065  0.000000
  0.000000  0.000000  0.000000

  0.000228  -0.000010  0.000000
  -0.000010  0.000002  0.000000
  0.000000  0.000000  0.000000

  0.000215  -0.000008  0.000000
  -0.000008  -0.000000  0.000000
  0.000000  0.000000  0.000000

  0.000013  -0.000030  0.000000
  -0.000030  0.000075  0.000000
  0.000000  0.000000  0.000000

  0.000009  -0.000028  0.000000
  -0.000028  0.000076  0.000000
  0.000000  0.000000  0.000000

  0.000177  -0.000077  0.000000
  -0.000077  0.000035  0.000000
  0.000000  0.000000  0.000000

  0.000178  -0.000076  0.000000
  -0.000076  0.000029  0.000000
  0.000000  0.000000  0.000000

  0.000164  -0.000083  0.000000
  -0.000083  0.000043  0.000000
  0.000000  0.000000  0.000000

  0.000161  -0.000087  0.000000
  -0.000087  0.000039  0.000000
  0.000000  0.000000  0.000000

  0.000000  -0.000001  0.000000
  -0.000001  0.000017  0.000000
  0.000000  0.000000  0.000000

  -0.000001  0.000001  0.000000
  0.000001  0.000017  0.000000
  0.000000  0.000000  0.000000

  0.000129  -0.000088  0.000000
  -0.000088  0.000061  0.000000
  0.000000  0.000000  0.000000

  0.000130  -0.000088  0.000000
  -0.000088  0.000055  0.000000
  0.000000  0.000000  0.000000

  0.000005  -0.000016  0.000000
  -0.000016  0.000058  0.000000
  0.000000  0.000000  0.000000

  0.000003  -0.000016  0.000000
  -0.000016  0.000058  0.000000
  0.000000  0.000000  0.000000

  0.000101  -0.000086  0.000000
  -0.000086  0.000074  0.000000
  0.000000  0.000000  0.000000

  0.000096  -0.000089  0.000000
  -0.000089  0.000074  0.000000
  0.000000  0.000000  0.000000

  0.000185  -0.000072  0.000000
  -0.000072  0.000029  0.000000
  0.000000  0.000000  0.000000

  0.000174  -0.000068  0.000000
  -0.000068  0.000027  0.000000
  0.000000  0.000000  0.000000

  0.000056  -0.000070  0.000000
  -0.000070  0.000088  0.000000
  0.000000  0.000000  0.000000

  0.000051  -0.000071  0.000000
  -0.000071  0.000089  0.000000
  0.000000  0.000000  0.000000

  0.000043  -0.000061  0.000000
  -0.000061  0.000090  0.000000
  0.000000  0.000000  0.000000

  0.000041  -0.000063  0.000000
  -0.000063  0.000088  0.000000
  0.000000  0.000000  0.000000

  0.000024  -0.000045  0.000000
  -0.000045  0.000085  0.000000
  0.000000  0.000000  0.000000

  0.000021  -0.000046  0.000000
  -0.000046  0.000085  0.000000
  0.000000  0.000000  0.000000

  0.000000  -0.000001  0.000000
  -0.000001  0.000020  0.000000
  0.000000  0.000000  0.000000

  -0.000000  -0.000001  0.000000
  -0.000001  0.000020  0.000000
  0.000000  0.000000  0.000000

  0.000213  -0.000047  0.000000
  -0.000047  0.000012  0.000000
  0.000000  0.000000  0.000000

  0.000200  -0.000044  0.000000
  -0.000044  0.000009  0.000000
  0.000000  0.000000  0.000000

  0.000022  -0.000042  0.000000
  -0.000042  0.000084  0.000000
  0.000000  0.000000  0.000000

  0.000019  -0.000043  0.000000
  -0.000043  0.000084  0.000000
  0.000000  0.000000  0.000000

  0.000000  -0.000000  0.000000
  -0.000000  0.000014  0.000000
  0.000000  0.000000  0.000000

  -0.000000  -0.000000  0.000000
  -0.000000  0.000014  0.000000
  0.000000  0.000000  0.000000

  0.000086  -0.000082  0.000000
  -0.000082  0.000080  0.000000
  0.000000  0.000000  0.000000

  0.000080  -0.000083  0.000000
  -0.000083  0.000082  0.000000
  0.000000  0.000000  0.000000

  0.000010  -0.000027  0.000000
  -0.000027  0.000072  0.000000
  0.000000  0.000000  0.000000

  0.000007  -0.000026  0.000000
  -0.000026  0.000072  0.000000
  0.000000  0.000000  0.000000

  0.000091  -0.000083  0.000000
  -0.000083  0.000078  0.000000
  0.000000  0.000000  0.000000

  0.000085  -0.000079  0.000000
  -0.000079  0.000073  0.000000
  0.000000  0.000000  0.000000

  0.000238  -0.000005  0.000000
  -0.000005  0.000002  0.000000
  0.000000  0.000000  0.000000

  0.000239  -0.000006  0.000000
  -0.000006  -0.000005  0.000000
  0.000000  0.000000  0.000000

  0.000015  -0.000034  0.000000
  -0.000034  0.000079  0.000000
  0.000000  0.000000  0.000000

  0.000015  -0.000035  0.000000
  -0.000035  0.000077  0.000000
  0.000000  0.000000  0.000000

  0.000143  -0.000086  0.000000
  -0.000086  0.000054  0.000000
  0.000000  0.000000  0.000000

  0.000135  -0.000090  0.000000
  -0.000090  0.000056  0.000000
  0.000000  0.000000  0.000000

  0.000051  -0.000066  0.000000
  -0.000066  0.000088  0.000000
  0.000000  0.000000  0.000000

  0.000045  -0.000065  0.000000
  -0.000065  0.000091  0.000000
  0.000000  0.000000  0.000000

  0.000200  -0.000062  0.000000
  -0.000062  0.000020  0.000000
  0.000000  0.000000  0.000000

  0.000188  -0.000057  0.000000
  -0.000057  0.000017  0.000000
  0.000000  0.000000  0.000000

  0.000000  -0.000002  0.000000
  -0.000002  0.000024  0.000000
  0.000000  0.000000  0.000000

  -0.000000  -0.000001  0.000000
  -0.000001  0.000024  0.000000
  0.000000  0.000000  0.000000

  0.000216  -0.000043  0.000000
  -0.000043  0.000010  0.000000
  0.000000  0.000000  0.000000

  0.000216  -0.000042  0.000000
  -0.000042  0.000003  0.000000
  0.000000  0.000000  0.000000

  0.000014  -0.000032  0.000000
  -0.000032  0.000076  0.000000
  0.000000  0.000000  0.000000

  0.000010  -0.000030  0.000000
  -0.000030  0.000077  0.000000
  0.000000  0.000000  0.000000

  0.000164  -0.000082  0.000000
  -0.000082  0.000042  0.000000
  0.000000  0.000000  0.000000

  0.000160  -0.000086  0.000000
  -0.000086  0.000040  0.000000
  0.000000  0.000000  0.000000

  0.000125  -0.000088  0.000000
  -0.000088  0.000063  0.000000
  0.000000  0.000000  0.000000

  0.000116  -0.000082  0.000000
  -0.000082  0.000058  0.000000
  0.000000  0.000000  0.000000

  0.000178  -0.000078  0.000000
  -0.000078  0.000035  0.000000
  0.000000  0.000000  0.000000

  0.000174  -0.000081  0.000000
  -0.000081  0.000032  0.000000
  0.000000  0.000000  0.000000

  0.000002  -0.000007  0.000000
  -0.000007  0.000041  0.000000
  0.000000  0.000000  0.000000

  0.000000  -0.000007  0.000000
  -0.000007  0.000041  0.000000
  0.000000  0.000000  0.000000

  0.000110  -0.000087  0.000000
  -0.000087  0.000071  0.000000
  0.000000  0.000000  0.000000

  0.000104  -0.000091  0.000000
  -0.000091  0.000069  0.000000
  0.000000  0.000000  0.000000

  0.000034  -0.000054  0.000000
  -0.000054  0.000088  0.000000
  0.000000  0.000000  0.000000

  0.000034  -0.000056  0.000000
  -0.000056  0.000086  0.000000
  0.000000  0.000000  0.000000

  0.000001  -0.000003  0.000000
  -0.000003  0.000031  0.000000
  0.000000  0.000000  0.000000

  -0.000000  -0.000003  0.000000
  -0.000003  0.000031  0.000000
  0.000000  0.000000  0.000000

  0.000207  -0.000054  0.000000
  -0.000054  0.000015  0.000000
  0.000000  0.000000  0.000000

  0.000203  -0.000059  0.000000
  -0.000059  0.000013  0.000000
  0.000000  0.000000  0.000000

  0.000029  -0.000050  0.000000
  -0.000050  0.000087  0.000000
  0.000000  0.000000  0.000000

  0.000028  -0.000051  0.000000
  -0.000051  0.000086  0.000000
  0.000000  0.000000  0.000000

  0.000000  0.000001  0.000000
  0.000001  0.000006  0.000000
  0.000000  0.000000  0.000000

  -0.000004  0.000006  0.000000
  0.000006  0.000005  0.000000
  0.000000  0.000000  0.000000

  0.000076  -0.000080  0.000000
  -0.000080  0.000084  0.000000
  0.000000  0.000000  0.000000

  0.000074  -0.000082  0.000000
  -0.000082  0.000081  0.000000
  0.000000  0.000000  0.000000

  0.000154  -0.000085  0.000000
  -0.000085  0.000048  0.000000
  0.000000  0.000000  0.000000

  0.000144  -0.000080  0.000000
  -0.000080  0.000046  0.000000
  0.000000  0.000000  0.000000

  0.000003  -0.000011  0.000000
  -0.000011  0.000050  0.000000
  0.000000  0.000000  0.000000

  0.000001  -0.000011  0.000000
  -0.000011  0.000051  0.000000
  0.000000  0.000000  0.000000

  0.000063  -0.000073  0.000000
  -0.000073  0.000087  0.000000
  0.000000  0.000000  0.000000

  0.000063  -0.000075  0.000000
  -0.000075  0.000083  0.000000
  0.000000  0.000000  0.000000

  0.000225  -0.000020  0.000000
  -0.000020  0.000003  0.000000
  0.000000  0.000000  0.000000

  0.000224  -0.000015  0.000000
  -0.000015  -0.000003  0.000000
  0.000000  0.000000  0.000000

  0.000222  -0.000032  0.000000
  -0.000032  0.000006  0.000000
  0.000000  0.000000  0.000000

  0.000219  -0.000037  0.000000
  -0.000037  0.000003  0.000000
  0.000000  0.000000  0.000000

  0.000038  -0.000057  0.000000
  -0.000057  0.000089  0.000000
  0.000000  0.000000  0.000000

  0.000037  -0.000059  0.000000
  -0.000059  0.000087  0.000000
  0.000000  0.000000  0.000000

  0.000024  -0.000044  0.000000
  -0.000044  0.000084  0.000000
  0.000000  0.000000  0.000000

  0.000019  -0.000043  0.000000
  -0.000043  0.000086  0.000000
  0.000000  0.000000  0.000000

  0.000195  -0.000065  0.000000
  -0.000065  0.000023  0.000000
  0.000000  0.000000  0.000000

  0.000190  -0.000071  0.000000
  -0.000071  0.000021  0.000000
  0.000000  0.000000  0.000000

  0.000001  -0.000004  0.000000
  -0.000004  0.000032  0.000000
  0.000000  0.000000  0.000000

  -0.000000  -0.000003  0.000000
  -0.000003  0.000033  0.000000
  0.000000  0.000000  0.000000

  0.000022  -0.000042  0.000000
  -0.000042  0.000083  0.000000
  0.000000  0.000000  0.000000

  0.000017  -0.000040  0.000000
  -0.000040  0.000084  0.000000
  0.000000  0.000000  0.000000

  0.000002  -0.000008  0.000000
  -0.000008  0.000042  0.000000
  0.000000  0.000000  0.000000

  -0.000000  -0.000006  0.000000
  -0.000006  0.000043  0.000000
  0.000000  0.000000  0.000000

  0.000054  -0.000068  0.000000
  -0.000068  0.000089  0.000000
  0.000000  0.000000  0.000000

  0.000055  -0.000069  0.000000
  -0.000069  0.000085  0.000000
  0.000000  0.000000  0.000000

  0.000217  -0.000041  0.000000
  -0.000041  0.000009  0.000000
  0.000000  0.000000  0.000000

  0.000214  -0.000046  0.000000
  -0.000046  0.000006  0.000000
  0.000000  0.000000  0.000000

  0.000148  -0.000086  0.000000
  -0.000086  0.000051  0.000000
  0.000000  0.000000  0.000000

  0.000149  -0.000086  0.000000
  -0.000086  0.000045  0.000000
  0.000000  0.000000  0.000000

  0.000099  -0.000086  0.000000
  -0.000086  0.000075  0.000000
  0.000000  0.000000  0.000000

  0.000101  -0.000087  0.000000
  -0.000087  0.000070  0.000000
  0.000000  0.000000  0.000000

  0.000126  -0.000089  0.000000
  -0.000089  0.000064  0.000000
  0.000000  0.000000  0.000000

  0.000125  -0.000091  0.000000
  -0.000091  0.000059  0.000000
  0.000000  0.000000  0.000000

  0.000140  -0.000088  0.000000
  -0.000088  0.000056  0.000000
  0.000000  0.000000  0.000000

  0.000140  -0.000090  0.000000
  -0.000090  0.000051  0.000000
  0.000000  0.000000  0.000000

  0.000007  -0.000021  0.000000
  -0.000021  0.000065  0.000000
  0.000000  0.000000  0.000000

  0.000004  -0.000020  0.000000
  -0.000020  0.000066  0.000000
  0.000000  0.000000  0.000000

  0.000225  -0.000018  0.000000
  -0.000018  0.000003  0.000000
  0.000000  0.000000  0.000000

  0.000224  -0.000023  0.000000
  -0.000023  -0.000002  0.000000
  0.000000  0.000000  0.000000

  0.000000  -0.000002  0.000000
  -0.000002  0.000023  0.000000
  0.000000  0.000000  0.000000

  -0.000001  -0.000000  0.000000
  -0.000000  0.000023  0.000000
  0.000000  0.000000  0.000000

  0.000065  -0.000075  0.000000
  -0.000075  0.000087  0.000000
  0.000000  0.000000  0.000000

  0.000060  -0.000076  0.000000
  -0.000076  0.000087  0.000000
  0.000000  0.000000  0.000000

  0.000235  -0.000004  0.000000
  -0.000004  0.000002  0.000000
  0.000000  0.000000  0.000000

  0.000233  -0.000013  0.000000
  -0.000013  -0.000001  0.000000
  0.000000  0.000000  0.000000

  0.000010  -0.000026  0.000000
  -0.000026  0.000070  0.000000
  0.000000  0.000000  0.000000

  0.000006  -0.000024  0.000000
  -0.000024  0.000072  0.000000
  0.000000  0.000000  0.000000

  0.000030  -0.000051  0.000000
  -0.000051  0.000087  0.000000
  0.000000  0.000000  0.000000

  0.000026  -0.000051  0.000000
  -0.000051  0.000089  0.000000
  0.000000  0.000000  0.000000

  0.000155  -0.000086  0.000000
  -0.000086  0.000048  0.000000
  0.000000  0.000000  0.000000

  0.000154  -0.000089  0.000000
  -0.000089  0.000043  0.000000
  0.000000  0.000000  0.000000

  0.000107  -0.000086  0.000000
  -0.000086  0.000070  0.000000
  0.000000  0.000000  0.000000

  0.000099  -0.000088  0.000000
  -0.000088  0.000073  0.000000
  0.000000  0.000000  0.000000

  0.000230  -0.000011  0.000000
  -0.000011  0.000001  0.000000
  0.000000  0.000000  0.000000

  0.000231  -0.000011  0.000000
  -0.000011  -0.000005  0.000000
  0.000000  0.000000  0.000000

  0.000202  -0.000063  0.000000
  -0.000063  0.000021  0.000000
  0.000000  0.000000  0.000000

  0.000201  -0.000065  0.000000
  -0.000065  0.000014  0.000000
  0.000000  0.000000  0.000000

  0.000207  -0.000057  0.000000
  -0.000057  0.000016  0.000000
  0.000000  0.000000  0.000000

  0.000206  -0.000059  0.000000
  -0.000059  0.000011  0.000000
  0.000000  0.000000  0.000000

  0.000017  -0.000037  0.000000
  -0.000037  0.000079  0.000000
  0.000000  0.000000  0.000000

  0.000014  -0.000033  0.000000
  -0.000033  0.000079  0.000000
  0.000000  0.000000  0.000000

  0.000173  -0.000078  0.000000
  -0.000078  0.000037  0.000000
  0.000000  0.000000  0.000000

  0.000175  -0.000076  0.000000
  -0.000076  0.000030  0.000000
  0.000000  0.000000  0.000000

  0.000000  -0.000000  0.000000
  -0.000000  0.000015  0.000000
  0.000000  0.000000  0.000000

  -0.000001  0.000001  0.000000
  0.000001  0.000015  0.000000
  0.000000  0.000000  0.000000

  0.000222  -0.000028  0.000000
  -0.000028  0.000005  0.000000
  0.000000  0.000000  0.000000

  0.000222  -0.000023  0.000000
  -0.000023  -0.000001  0.000000
  0.000000  0.000000  0.000000

  0.000162  -0.000083  0.000000
  -0.000083  0.000044  0.000000
  0.000000  0.000000  0.000000

  0.000164  -0.000081  0.000000
  -0.000081  0.000036  0.000000
  0.000000  0.000000  0.000000

  0.000092  -0.000085  0.000000
  -0.000085  0.000079  0.000000
  0.000000  0.000000  0.000000

  0.000088  -0.000087  0.000000
  -0.000087  0.000077  0.000000
  0.000000  0.000000  0.000000

  0.000221  -0.000035  0.000000
  -0.000035  0.000006  0.000000
  0.000000  0.000000  0.000000

  0.000221  -0.000036  0.000000
  -0.000036  0.000002  0.000000
  0.000000  0.000000  0.000000

  0.000131  -0.000088  0.000000
  -0.000088  0.000060  0.000000
  0.000000  0.000000  0.000000

  0.000124  -0.000092  0.000000
  -0.000092  0.000061  0.000000
  0.000000  0.000000  0.000000

  0.000005  -0.000017  0.000000
  -0.000017  0.000060  0.000000
  0.000000  0.000000  0.000000

  0.000002  -0.000015  0.000000
  -0.000015  0.000060  0.000000
  0.000000  0.000000  0.000000

  0.000038  -0.000058  0.000000
  -0.000058  0.000089  0.000000
  0.000000  0.000000  0.000000

  0.000033  -0.000058  0.000000
  -0.000058  0.000089  0.000000
  0.000000  0.000000  0.000000

  0.000188  -0.000073  0.000000
  -0.000073  0.000029  0.000000
  0.000000  0.000000  0.000000

  0.000186  -0.000076  0.000000
  -0.000076  0.000024  0.000000
  0.000000  0.000000  0.000000

  0.000003  -0.000011  0.000000
  -0.000011  0.000050  0.000000
  0.000000  0.000000  0.000000

  0.000000  -0.000009  0.000000
  -0.000009  0.000050  0.000000
  0.000000  0.000000  0.000000

  0.000076  -0.000079  0.000000
  -0.000079  0.000084  0.000000
  0.000000  0.000000  0.000000

  0.000069  -0.000080  0.000000
  -0.000080  0.000085  0.000000
  0.000000  0.000000  0.000000

  0.000045  -0.000062  0.000000
  -0.000062  0.000088  0.000000
  0.000000  0.000000  0.000000

  0.000039  -0.000061  0.000000
  -0.000061  0.000091  0.000000
  0.000000  0.000000  0.000000

  0.000215  -0.000049  0.000000
  -0.000049  0.000012  0.000000
  0.000000  0.000000  0.000000

  0.000215  -0.000050  0.000000
  -0.000050  0.000005  0.000000
  0.000000  0.000000  0.000000

  -0.000001  0.000004  0.000000
  0.000004  0.000002  0.000000
  0.000000  0.000000  0.000000

  0.000012  0.000009  0.000000
  0.000009  -0.000002  0.000000
  0.000000  0.000000  0.000000

  -0.000012  0.000009  0.000000
  0.000009  0.000002  0.000000
  0.000000  0.000000  0.000000

  -0.000256  0.000003  0.000000
  0.000003  0.000000  0.000000
  0.000000  0.000000  0.000000

  0.000220  -0.000014  0.000000
  -0.000014  0.000000  0.000000
  0.000000  0.000000  0.000000

  0.000014  0.000010  0.000000
  0.000010  -0.000001  0.000000
  0.000000  0.000000  0.000000

  -0.000015  0.000009  0.000000
  0.000009  0.000001  0.000000
  0.000000  0.000000  0.000000

  0.000200  -0.000013  0.000000
  -0.000013  0.000000  0.000000
  0.000000  0.000000  0.000000

  -0.000234  0.000004  0.000000
  0.000004  0.000000  0.000000
  0.000000  0.000000  0.000000

  0.000014  0.000011  0.000000
  0.000011  -0.000001  0.000000
  0.000000  0.000000  0.000000

  -0.000015  0.000010  0.000000
  0.000010  0.000001  0.000000
  0.000000  0.000000  0.000000

  0.000187  -0.000012  0.000000
  -0.000012  0.000000  0.000000
  0.000000  0.000000  0.000000

  -0.000219  0.000005  0.000000
  0.000005  0.000000  0.000000
  0.000000  0.000000  0.000000

  0.000012  0.000010  0.000000
  0.000010  -0.000001  0.000000
  0.000000  0.000000  0.000000

  -0.000015  0.000010  0.000000
  0.000010  0.000001  0.000000
  0.000000  0.000000  0.000000

  0.000166  -0.000012  0.000000
  -0.000012  0.000000  0.000000
  0.000000  0.000000  0.000000

  -0.000193  0.000004  0.000000
  0.000004  0.000000  0.000000
  0.000000  0.000000  0.000000

  -0.000008  0.000010  0.000000
  0.000010  0.000000  0.000000
  0.000000  0.000000  0.000000

  -0.000010  0.000010  0.000000
  0.000010  -0.000000  0.000000
  0.000000  0.000000  0.000000

  -0.000009  0.000008  0.000000
  0.000008  0.000002  0.000000
  0.000000  0.000000  0.000000

  -0.000245  0.000016  0.000000
  0.000016  0.000002  0.000000
  0.000000  0.000000  0.000000

  -0.000226  0.000013  0.000000
  0.000013  0.000001  0.000000
  0.000000  0.000000  0.000000

  -0.000224  0.000003  0.000000
  0.000003  -0.000001  0.000000
  0.000000  0.000000  0.000000

  0.000008  0.000010  0.000000
  0.000010  0.000000  0.000000
  0.000000  0.000000  0.000000

  0.000008  0.000009  0.000000
  0.000009  -0.000003  0.000000
  0.000000  0.000000  0.000000

  0.000007  0.000010  0.000000
  0.000010  0.000000  0.000000
  0.000000  0.000000  0.000000

  0.000194  -0.000005  0.000000
  -0.000005  -0.000001  0.000000
  0.000000  0.000000  0.000000

  0.000191  -0.000014  0.000000
  -0.000014  0.000001  0.000000
  0.000000  0.000000  0.000000

  0.000211  -0.000003  0.000000
  -0.000003  -0.000003  0.000000
  0.000000  0.000000  0.000000

  -0.000175  0.000003  0.000000
  0.000003  0.000000  0.000000
  0.000000  0.000000  0.000000

  0.000012  0.000011  0.000000
  0.000011  -0.000001  0.000000
  0.000000  0.000000  0.000000

  -0.000015  0.000010  0.000000
  0.000010  0.000001  0.000000
  0.000000  0.000000  0.000000

  0.000153  -0.000012  0.000000
  -0.000012  0.000000  0.000000
  0.000000  0.000000  0.000000

  -0.000203  0.000016  0.000000
  0.000016  -0.000001  0.000000
  0.000000  0.000000  0.000000

  -0.000221  0.000009  0.000000
  0.000009  0.000003  0.000000
  0.000000  0.000000  0.000000

  0.000008  0.000010  0.000000
  0.000010  0.000001  0.000000
  0.000000  0.000000  0.000000

  0.000007  0.000011  0.000000
  0.000011  -0.000001  0.000000
  0.000000  0.000000  0.000000

  -0.000010  0.000009  0.000000
  0.000009  -0.000001  0.000000
  0.000000  0.000000  0.000000

  -0.000010  0.000010  0.000000
  0.000010  0.000001  0.000000
  0.000000  0.000000  0.000000

  0.000175  -0.000003  0.000000
  -0.000003  -0.000000  0.000000
  0.000000  0.000000  0.000000

  0.000189  -0.000009  0.000000
  -0.000009  -0.000003  0.000000
  0.000000  0.000000  0.000000

  -0.000150  0.000001  0.000000
  0.000001  0.000000  0.000000
  0.000000  0.000000  0.000000

  0.000011  0.000011  0.000000
  0.000011  -0.000001  0.000000
  0.000000  0.000000  0.000000

  -0.000014  0.000010  0.000000
  0.000010  0.000001  0.000000
  0.000000  0.000000  0.000000

  0.000129  -0.000012  0.000000
  -0.000012  0.000000  0.000000
  0.000000  0.000000  0.000000

  -0.000004  0.000006  0.000000
  0.000006  0.000001  0.000000
  0.000000  0.000000  0.000000

  0.000196  -0.000006  0.000000
  -0.000006  0.000004  0.000000
  0.000000  0.000000  0.000000

  -0.000229  0.000012  0.000000
  0.000012  -0.000006  0.000000
  0.000000  0.000000  0.000000

  -0.000150  0.000110  0.000000
  0.000110  -0.000079  0.000000
  0.000000  0.000000  0.000000

  -0.000167  0.000095  0.000000
  0.000095  -0.000061  0.000000
  0.000000  0.000000  0.000000

  0.000182  -0.000065  0.000000
  -0.000065  0.000022  0.000000
  0.000000  0.000000  0.000000

  -0.000001  0.000005  0.000000
  0.000005  -0.000023  0.000000
  0.000000  0.000000  0.000000

  -0.000082  0.000093  0.000000
  0.000093  -0.000106  0.000000
  0.000000  0.000000  0.000000

  0.000047  -0.000063  0.000000
  -0.000063  0.000083  0.000000
  0.000000  0.000000  0.000000

  0.000012  -0.000029  0.000000
  -0.000029  0.000072  0.000000
  0.000000  0.000000  0.000000

  -0.000255  0.000012  0.000000
  0.000012  -0.000006  0.000000
  0.000000  0.000000  0.000000

  -0.000022  0.000039  0.000000
  0.000039  -0.000083  0.000000
  0.000000  0.000000  0.000000

  0.000226  -0.000016  0.000000
  -0.000016  -0.000001  0.000000
  0.000000  0.000000  0.000000

  0.000199  -0.000046  0.000000
  -0.000046  0.000011  0.000000
  0.000000  0.000000  0.000000

  -0.000268  0.000054  0.000000
  0.000054  -0.000012  0.000000
  0.000000  0.000000  0.000000

  0.000113  -0.000083  0.000000
  -0.000083  0.000060  0.000000
  0.000000  0.000000  0.000000

  0.000097  -0.000088  0.000000
  -0.000088  0.000074  0.000000
  0.000000  0.000000  0.000000

  -0.000280  0.000023  0.000000
  0.000023  -0.000004  0.000000
  0.000000  0.000000  0.000000

  -0.000257  0.000017  0.000000
  0.000017  -0.000006  0.000000
  0.000000  0.000000  0.000000

  0.000212  -0.000018  0.000000
  -0.000018  0.000002  0.000000
  0.000000  0.000000  0.000000

  -0.000042  0.000061  0.000000
  0.000061  -0.000099  0.000000
  0.000000  0.000000  0.000000

  -0.000064  0.000075  0.000000
  0.000075  -0.000096  0.000000
  0.000000  0.000000  0.000000

  0.000161  -0.000085  0.000000
  -0.000085  0.000041  0.000000
  0.000000  0.000000  0.000000

  0.000104  -0.000082  0.000000
  -0.000082  0.000066  0.000000
  0.000000  0.000000  0.000000

  -0.000035  0.000057  0.000000
  0.000057  -0.000100  0.000000
  0.000000  0.000000  0.000000

  0.000002  -0.000011  0.000000
  -0.000011  0.000050  0.000000
  0.000000  0.000000  0.000000

  0.000007  -0.000021  0.000000
  -0.000021  0.000065  0.000000
  0.000000  0.000000  0.000000

  -0.000004  0.000012  0.000000
  0.000012  -0.000048  0.000000
  0.000000  0.000000  0.000000

  0.000178  -0.000078  0.000000
  -0.000078  0.000030  0.000000
  0.000000  0.000000  0.000000

  0.000034  -0.000053  0.000000
  -0.000053  0.000084  0.000000
  0.000000  0.000000  0.000000

  -0.000013  0.000028  0.000000
  0.000028  -0.000071  0.000000
  0.000000  0.000000  0.000000

  -0.000024  0.000044  0.000000
  0.000044  -0.000092  0.000000
  0.000000  0.000000  0.000000

  0.000021  -0.000040  0.000000
  -0.000040  0.000079  0.000000
  0.000000  0.000000  0.000000

  0.000074  -0.000076  0.000000
  -0.000076  0.000078  0.000000
  0.000000  0.000000  0.000000

  -0.000009  0.000022  0.000000
  0.000022  -0.000066  0.000000
  0.000000  0.000000  0.000000

  -0.000001  0.000002  0.000000
  0.000002  -0.000013  0.000000
  0.000000  0.000000  0.000000

  0.000001  -0.000006  0.000000
  -0.000006  0.000042  0.000000
  0.000000  0.000000  0.000000

  -0.000033  0.000053  0.000000
  0.000053  -0.000096  0.000000
  0.000000  0.000000  0.000000

  -0.000086  0.000094  0.000000
  0.000094  -0.000105  0.000000
  0.000000  0.000000  0.000000

  0.000002  -0.000009  0.000000
  -0.000009  0.000046  0.000000
  0.000000  0.000000  0.000000

  0.000000  0.000000  0.000000
  0.000000  0.000019  0.000000
  0.000000  0.000000  0.000000

  -0.000017  0.000036  0.000000
  0.000036  -0.000085  0.000000
  0.000000  0.000000  0.000000

  0.000217  -0.000006  0.000000
  -0.000006  0.000003  0.000000
  0.000000  0.000000  0.000000

  0.000195  -0.000067  0.000000
  -0.000067  0.000020  0.000000
  0.000000  0.000000  0.000000

  -0.000001  0.000003  0.000000
  0.000003  -0.000018  0.000000
  0.000000  0.000000  0.000000

  0.000020  -0.000039  0.000000
  -0.000039  0.000079  0.000000
  0.000000  0.000000  0.000000

  0.000223  -0.000004  0.000000
  -0.000004  0.000004  0.000000
  0.000000  0.000000  0.000000

  -0.000000  -0.000000  0.000000
  -0.000000  0.000021  0.000000
  0.000000  0.000000  0.000000

  -0.000187  0.000094  0.000000
  0.000094  -0.000052  0.000000
  0.000000  0.000000  0.000000

  0.000013  -0.000029  0.000000
  -0.000029  0.000072  0.000000
  0.000000  0.000000  0.000000

  0.000134  -0.000081  0.000000
  -0.000081  0.000050  0.000000
  0.000000  0.000000  0.000000

  -0.000002  0.000007  0.000000
  0.000007  -0.000030  0.000000
  0.000000  0.000000  0.000000

  -0.000165  0.000108  0.000000
  0.000108  -0.000072  0.000000
  0.000000  0.000000  0.000000

  0.000000  -0.000002  0.000000
  -0.000002  0.000027  0.000000
  0.000000  0.000000  0.000000

  0.000000  0.000002  0.000000
  0.000002  0.000007  0.000000
  0.000000  0.000000  0.000000

  0.000001  0.000002  0.000000
  0.000002  -0.000006  0.000000
  0.000000  0.000000  0.000000

  0.000017  -0.000036  0.000000
  -0.000036  0.000076  0.000000
  0.000000  0.000000  0.000000

  -0.000184  0.000013  0.000000
  0.000013  -0.000003  0.000000
  0.000000  0.000000  0.000000

  -0.000175  0.000003  0.000000
  0.000003  -0.000006  0.000000
  0.000000  0.000000  0.000000

  -0.000247  0.000043  0.000000
  0.000043  -0.000013  0.000000
  0.000000  0.000000  0.000000

  0.000110  -0.000084  0.000000
  -0.000084  0.000064  0.000000
  0.000000  0.000000  0.000000

  0.000121  -0.000083  0.000000
  -0.000083  0.000057  0.000000
  0.000000  0.000000  0.000000

  0.000174  -0.000069  0.000000
  -0.000069  0.000028  0.000000
  0.000000  0.000000  0.000000

  -0.000001  0.000004  0.000000
  0.000004  -0.000022  0.000000
  0.000000  0.000000  0.000000

  0.000000  0.000000  0.000000
  0.000000  0.000015  0.000000
  0.000000  0.000000  0.000000

  0.000209  -0.000053  0.000000
  -0.000053  0.000011  0.000000
  0.000000  0.000000  0.000000

  -0.000260  0.000028  0.000000
  0.000028  -0.000007  0.000000
  0.000000  0.000000  0.000000

  -0.000001  0.000003  0.000000
  0.000003  -0.000009  0.000000
  0.000000  0.000000  0.000000

  0.000072  -0.000076  0.000000
  -0.000076  0.000080  0.000000
  0.000000  0.000000  0.000000

  0.000057  -0.000069  0.000000
  -0.000069  0.000084  0.000000
  0.000000  0.000000  0.000000

  -0.000002  0.000009  0.000000
  0.000009  -0.000044  0.000000
  0.000000  0.000000  0.000000

  -0.000023  0.000042  0.000000
  0.000042  -0.000089  0.000000
  0.000000  0.000000  0.000000

  0.000041  -0.000058  0.000000
  -0.000058  0.000083  0.000000
  0.000000  0.000000  0.000000

  -0.000248  0.000040  0.000000
  0.000040  -0.000013  0.000000
  0.000000  0.000000  0.000000

  0.000086  -0.000080  0.000000
  -0.000080  0.000074  0.000000
  0.000000  0.000000  0.000000

  0.000169  -0.000070  0.000000
  -0.000070  0.000029  0.000000
  0.000000  0.000000  0.000000

  0.000008  -0.000023  0.000000
  -0.000023  0.000069  0.000000
  0.000000  0.000000  0.000000

  -0.000095  0.000098  0.000000
  0.000098  -0.000102  0.000000
  0.000000  0.000000  0.000000

  0.000024  -0.000044  0.000000
  -0.000044  0.000082  0.000000
  0.000000  0.000000  0.000000

  0.000207  -0.000030  0.000000
  -0.000030  0.000004  0.000000
  0.000000  0.000000  0.000000

  -0.000168  0.000097  0.000000
  0.000097  -0.000062  0.000000
  0.000000  0.000000  0.000000

  -0.000196  0.000090  0.000000
  0.000090  -0.000048  0.000000
  0.000000  0.000000  0.000000

  0.000092  -0.000087  0.000000
  -0.000087  0.000078  0.000000
  0.000000  0.000000  0.000000

  -0.000011  0.000010  0.000000
  0.000010  -0.000000  0.000000
  0.000000  0.000000  0.000000

  -0.000011  0.000010  0.000000
  0.000010  0.000002  0.000000
  0.000000  0.000000  0.000000

  -0.000067  0.000081  0.000000
  0.000081  -0.000103  0.000000
  0.000000  0.000000  0.000000

  0.000004  -0.000017  0.000000
  -0.000017  0.000063  0.000000
  0.000000  0.000000  0.000000

  0.000000  -0.000003  0.000000
  -0.000003  0.000031  0.000000
  0.000000  0.000000  0.000000

  -0.000008  0.000019  0.000000
  0.000019  -0.000060  0.000000
  0.000000  0.000000  0.000000

  -0.000256  0.000036  0.000000
  0.000036  -0.000012  0.000000
  0.000000  0.000000  0.000000

  0.000010  -0.000026  0.000000
  -0.000026  0.000069  0.000000
  0.000000  0.000000  0.000000

  0.000031  -0.000051  0.000000
  -0.000051  0.000085  0.000000
  0.000000  0.000000  0.000000

  -0.000240  0.000046  0.000000
  0.000046  -0.000017  0.000000
  0.000000  0.000000  0.000000

  0.000011  -0.000027  0.000000
  -0.000027  0.000070  0.000000
  0.000000  0.000000  0.000000

  0.000019  -0.000037  0.000000
  -0.000037  0.000078  0.000000
  0.000000  0.000000  0.000000

  -0.000258  0.000012  0.000000
  0.000012  -0.000006  0.000000
  0.000000  0.000000  0.000000

  -0.000038  0.000056  0.000000
  0.000056  -0.000092  0.000000
  0.000000  0.000000  0.000000

  0.000023  -0.000043  0.000000
  -0.000043  0.000080  0.000000
  0.000000  0.000000  0.000000

  0.000190  -0.000058  0.000000
  -0.000058  0.000017  0.000000
  0.000000  0.000000  0.000000

  -0.000074  0.000082  0.000000
  0.000082  -0.000098  0.000000
  0.000000  0.000000  0.000000

  0.000035  -0.000054  0.000000
  -0.000054  0.000085  0.000000
  0.000000  0.000000  0.000000

  0.000052  -0.000066  0.000000
  -0.000066  0.000084  0.000000
  0.000000  0.000000  0.000000

  0.000003  0.000007  0.000000
  0.000007  -0.000000  0.000000
  0.000000  0.000000  0.000000

  -0.000058  0.000073  0.000000
  0.000073  -0.000100  0.000000
  0.000000  0.000000  0.000000

  0.000132  -0.000083  0.000000
  -0.000083  0.000052  0.000000
  0.000000  0.000000  0.000000

  0.000006  -0.000020  0.000000
  -0.000020  0.000062  0.000000
  0.000000  0.000000  0.000000

  -0.000225  0.000093  0.000000
  0.000093  -0.000037  0.000000
  0.000000  0.000000  0.000000

  0.000003  -0.000012  0.000000
  -0.000012  0.000052  0.000000
  0.000000  0.000000  0.000000

  -0.000000  -0.000003  0.000000
  -0.000003  0.000035  0.000000
  0.000000  0.000000  0.000000

  -0.000173  0.000093  0.000000
  0.000093  -0.000057  0.000000
  0.000000  0.000000  0.000000

  -0.000009  0.000023  0.000000
  0.000023  -0.000070  0.000000
  0.000000  0.000000  0.000000

  0.000106  -0.000083  0.000000
  -0.000083  0.000065  0.000000
  0.000000  0.000000  0.000000

  0.000205  -0.000036  0.000000
  -0.000036  0.000007  0.000000
  0.000000  0.000000  0.000000

  -0.000002  0.000008  0.000000
  0.000008  -0.000033  0.000000
  0.000000  0.000000  0.000000

  0.000212  -0.000015  0.000000
  -0.000015  0.000001  0.000000
  0.000000  0.000000  0.000000

  -0.000201  0.000085  0.000000
  0.000085  -0.000042  0.000000
  0.000000  0.000000  0.000000

  -0.000179  0.000092  0.000000
  0.000092  -0.000053  0.000000
  0.000000  0.000000  0.000000

  0.000155  -0.000086  0.000000
  -0.000086  0.000045  0.000000
  0.000000  0.000000  0.000000

  0.000164  -0.000073  0.000000
  -0.000073  0.000033  0.000000
  0.000000  0.000000  0.000000

  -0.000073  0.000080  0.000000
  0.000080  -0.000099  0.000000
  0.000000  0.000000  0.000000

  -0.000035  0.000056  0.000000
  0.000056  -0.000097  0.000000
  0.000000  0.000000  0.000000

  0.000041  -0.000060  0.000000
  -0.000060  0.000085  0.000000
  0.000000  0.000000  0.000000

  -0.000014  0.000031  0.000000
  0.000031  -0.000079  0.000000
  0.000000  0.000000  0.000000

  -0.000064  0.000076  0.000000
  0.000076  -0.000100  0.000000
  0.000000  0.000000  0.000000

  0.000023  -0.000043  0.000000
  -0.000043  0.000083  0.000000
  0.000000  0.000000  0.000000

  0.000073  -0.000075  0.000000
  -0.000075  0.000078  0.000000
  0.000000  0.000000  0.000000

  -0.000101  0.000100  0.000000
  0.000100  -0.000100  0.000000
  0.000000  0.000000  0.000000

  -0.000000  -0.000005  0.000000
  -0.000005  0.000040  0.000000
  0.000000  0.000000  0.000000

  0.000060  -0.000069  0.000000
  -0.000069  0.000082  0.000000
  0.000000  0.000000  0.000000

  -0.000249  0.000074  0.000000
  0.000074  -0.000024  0.000000
  0.000000  0.000000  0.000000

  -0.000197  0.000102  0.000000
  0.000102  -0.000054  0.000000
  0.000000  0.000000  0.000000

  0.000041  -0.000059  0.000000
  -0.000059  0.000086  0.000000
  0.000000  0.000000  0.000000

  0.000033  -0.000052  0.000000
  -0.000052  0.000084  0.000000
  0.000000  0.000000  0.000000

  -0.000057  0.000077  0.000000
  0.000077  -0.000110  0.000000
  0.000000  0.000000  0.000000

  0.000051  -0.000065  0.000000
  -0.000065  0.000084  0.000000
  0.000000  0.000000  0.000000

  0.000000  -0.000001  0.000000
  -0.000001  0.000023  0.000000
  0.000000  0.000000  0.000000

  -0.000046  0.000064  0.000000
  0.000064  -0.000095  0.000000
  0.000000  0.000000  0.000000

  -0.000162  0.000098  0.000000
  0.000098  -0.000065  0.000000
  0.000000  0.000000  0.000000

  0.000002  -0.000010  0.000000
  -0.000010  0.000048  0.000000
  0.000000  0.000000  0.000000

  -0.000256  0.000020  0.000000
  0.000020  -0.000008  0.000000
  0.000000  0.000000  0.000000

  0.000029  -0.000052  0.000000
  -0.000052  0.000089  0.000000
  0.000000  0.000000  0.000000

  0.000210  -0.000025  0.000000
  -0.000025  0.000004  0.000000
  0.000000  0.000000  0.000000

  -0.000151  0.000096  0.000000
  0.000096  -0.000066  0.000000
  0.000000  0.000000  0.000000

  -0.000000  0.000003  0.000000
  0.000003  -0.000018  0.000000
  0.000000  0.000000  0.000000

  0.000000  -0.000003  0.000000
  -0.000003  0.000035  0.000000
  0.000000  0.000000  0.000000

  -0.000000  0.000003  0.000000
  0.000003  0.000004  0.000000
  0.000000  0.000000  0.000000

  -0.000031  0.000050  0.000000
  0.000050  -0.000094  0.000000
  0.000000  0.000000  0.000000

  0.000205  -0.000038  0.000000
  -0.000038  0.000008  0.000000
  0.000000  0.000000  0.000000

  0.000134  -0.000090  0.000000
  -0.000090  0.000056  0.000000
  0.000000  0.000000  0.000000

  -0.000053  0.000069  0.000000
  0.000069  -0.000096  0.000000
  0.000000  0.000000  0.000000

  -0.000253  0.000015  0.000000
  0.000015  -0.000007  0.000000
  0.000000  0.000000  0.000000

  -0.000000  -0.000002  0.000000
  -0.000002  0.000029  0.000000
  0.000000  0.000000  0.000000

  0.000193  -0.000050  0.000000
  -0.000050  0.000012  0.000000
  0.000000  0.000000  0.000000

  -0.000134  0.000108  0.000000
  0.000108  -0.000087  0.000000
  0.000000  0.000000  0.000000

  0.000207  -0.000028  0.000000
  -0.000028  0.000004  0.000000
  0.000000  0.000000  0.000000

  0.000037  -0.000060  0.000000
  -0.000060  0.000091  0.000000
  0.000000  0.000000  0.000000

  -0.000005  0.000013  0.000000
  0.000013  -0.000051  0.000000
  0.000000  0.000000  0.000000

  -0.000053  0.000072  0.000000
  0.000072  -0.000105  0.000000
  0.000000  0.000000  0.000000

  0.000065  -0.000077  0.000000
  -0.000077  0.000087  0.000000
  0.000000  0.000000  0.000000

  0.000215  -0.000011  0.000000
  -0.000011  0.000002  0.000000
  0.000000  0.000000  0.000000

  -0.000014  0.000029  0.000000
  0.000029  -0.000075  0.000000
  0.000000  0.000000  0.000000

  0.000122  -0.000084  0.000000
  -0.000084  0.000059  0.000000
  0.000000  0.000000  0.000000

  0.000204  -0.000036  0.000000
  -0.000036  0.000006  0.000000
  0.000000  0.000000  0.000000

  -0.000157  0.000109  0.000000
  0.000109  -0.000077  0.000000
  0.000000  0.000000  0.000000

  -0.000029  0.000049  0.000000
  0.000049  -0.000090  0.000000
  0.000000  0.000000  0.000000

  0.000209  -0.000023  0.000000
  -0.000023  0.000004  0.000000
  0.000000  0.000000  0.000000

  0.000004  0.000006  0.000000
  0.000006  -0.000001  0.000000
  0.000000  0.000000  0.000000

  -0.000001  0.000005  0.000000
  0.000005  -0.000027  0.000000
  0.000000  0.000000  0.000000

  0.000006  -0.000020  0.000000
  -0.000020  0.000064  0.000000
  0.000000  0.000000  0.000000

  0.000084  -0.000079  0.000000
  -0.000079  0.000076  0.000000
  0.000000  0.000000  0.000000

  -0.000190  0.000088  0.000000
  0.000088  -0.000047  0.000000
  0.000000  0.000000  0.000000

  -0.000214  0.000098  0.000000
  0.000098  -0.000045  0.000000
  0.000000  0.000000  0.000000

  0.000000  0.000000  0.000000
  0.000000  0.000011  0.000000
  0.000000  0.000000  0.000000

  0.000079  -0.000077  0.000000
  -0.000077  0.000074  0.000000
  0.000000  0.000000  0.000000

  -0.000027  0.000048  0.000000
  0.000048  -0.000096  0.000000
  0.000000  0.000000  0.000000

  0.000081  -0.000077  0.000000
  -0.000077  0.000074  0.000000
  0.000000  0.000000  0.000000

  0.000179  -0.000066  0.000000
  -0.000066  0.000025  0.000000
  0.000000  0.000000  0.000000

  -0.000175  0.000107  0.000000
  0.000107  -0.000068  0.000000
  0.000000  0.000000  0.000000

  0.000200  -0.000041  0.000000
  -0.000041  0.000010  0.000000
  0.000000  0.000000  0.000000

  0.000084  -0.000084  0.000000
  -0.000084  0.000081  0.000000
  0.000000  0.000000  0.000000

  0.000008  0.000010  0.000000
  0.000010  0.000000  0.000000
  0.000000  0.000000  0.000000

  0.000008  0.000010  0.000000
  0.000010  -0.000002  0.000000
  0.000000  0.000000  0.000000

  -0.000254  0.000024  0.000000
  0.000024  -0.000008  0.000000
  0.000000  0.000000  0.000000

  0.000000  -0.000000  0.000000
  -0.000000  0.000017  0.000000
  0.000000  0.000000  0.000000

  0.000154  -0.000087  0.000000
  -0.000087  0.000045  0.000000
  0.000000  0.000000  0.000000

  -0.000005  0.000015  0.000000
  0.000015  -0.000053  0.000000
  0.000000  0.000000  0.000000

  -0.000259  0.000063  0.000000
  0.000063  -0.000016  0.000000
  0.000000  0.000000  0.000000

  0.000158  -0.000078  0.000000
  -0.000078  0.000039  0.000000
  0.000000  0.000000  0.000000

  0.000003  -0.000012  0.000000
  -0.000012  0.000054  0.000000
  0.000000  0.000000  0.000000

  -0.000006  0.000016  0.000000
  0.000016  -0.000056  0.000000
  0.000000  0.000000  0.000000

  -0.000007  0.000017  0.000000
  0.000017  -0.000058  0.000000
  0.000000  0.000000  0.000000

  0.000124  -0.000083  0.000000
  -0.000083  0.000055  0.000000
  0.000000  0.000000  0.000000

  -0.000008  0.000020  0.000000
  0.000020  -0.000063  0.000000
  0.000000  0.000000  0.000000

  -0.000071  0.000081  0.000000
  0.000081  -0.000099  0.000000
  0.000000  0.000000  0.000000

  0.000213  -0.000018  0.000000
  -0.000018  0.000002  0.000000
  0.000000  0.000000  0.000000

  -0.000003  0.000010  0.000000
  0.000010  -0.000043  0.000000
  0.000000  0.000000  0.000000

  -0.000051  0.000067  0.000000
  0.000067  -0.000099  0.000000
  0.000000  0.000000  0.000000

  0.000187  -0.000059  0.000000
  -0.000059  0.000020  0.000000
  0.000000  0.000000  0.000000

  -0.000254  0.000027  0.000000
  0.000027  -0.000010  0.000000
  0.000000  0.000000  0.000000

  -0.000251  0.000045  0.000000
  0.000045  -0.000013  0.000000
  0.000000  0.000000  0.000000

  0.000056  -0.000073  0.000000
  -0.000073  0.000089  0.000000
  0.000000  0.000000  0.000000

  0.000004  -0.000017  0.000000
  -0.000017  0.000061  0.000000
  0.000000  0.000000  0.000000

  -0.000258  0.000014  0.000000
  0.000014  -0.000006  0.000000
  0.000000  0.000000  0.000000

  0.000012  -0.000033  0.000000
  -0.000033  0.000079  0.000000
  0.000000  0.000000  0.000000

  0.000049  -0.000064  0.000000
  -0.000064  0.000086  0.000000
  0.000000  0.000000  0.000000

  -0.000236  0.000085  0.000000
  0.000085  -0.000030  0.000000
  0.000000  0.000000  0.000000

  -0.000175  0.000100  0.000000
  0.000100  -0.000062  0.000000
  0.000000  0.000000  0.000000

  0.000136  -0.000081  0.000000
  -0.000081  0.000050  0.000000
  0.000000  0.000000  0.000000

  0.000180  -0.000077  0.000000
  -0.000077  0.000030  0.000000
  0.000000  0.000000  0.000000

  -0.000119  0.000105  0.000000
  0.000105  -0.000094  0.000000
  0.000000  0.000000  0.000000

  0.000101  -0.000082  0.000000
  -0.000082  0.000067  0.000000
  0.000000  0.000000  0.000000

  0.000143  -0.000082  0.000000
  -0.000082  0.000046  0.000000
  0.000000  0.000000  0.000000

  -0.000009  0.000026  0.000000
  0.000026  -0.000078  0.000000
  0.000000  0.000000  0.000000

  -0.000207  0.000099  0.000000
  0.000099  -0.000048  0.000000
  0.000000  0.000000  0.000000

  0.000004  -0.000015  0.000000
  -0.000015  0.000057  0.000000
  0.000000  0.000000  0.000000

  0.000196  -0.000051  0.000000
  -0.000051  0.000013  0.000000
  0.000000  0.000000  0.000000

  -0.000003  0.000011  0.000000
  0.000011  -0.000046  0.000000
  0.000000  0.000000  0.000000

  0.000029  -0.000048  0.000000
  -0.000048  0.000082  0.000000
  0.000000  0.000000  0.000000

  -0.000003  0.000006  0.000000
  0.000006  0.000001  0.000000
  0.000000  0.000000  0.000000

  -0.000258  0.000012  0.000000
  0.000012  -0.000003  0.000000
  0.000000  0.000000  0.000000

  -0.000021  0.000040  0.000000
  0.000040  -0.000088  0.000000
  0.000000  0.000000  0.000000

  0.000119  -0.000091  0.000000
  -0.000091  0.000064  0.000000
  0.000000  0.000000  0.000000

  -0.000016  0.000034  0.000000
  0.000034  -0.000083  0.000000
  0.000000  0.000000  0.000000

  0.000162  -0.000075  0.000000
  -0.000075  0.000036  0.000000
  0.000000  0.000000  0.000000

  0.000147  -0.000088  0.000000
  -0.000088  0.000049  0.000000
  0.000000  0.000000  0.000000

  0.000159  -0.000005  0.000000
  -0.000005  -0.000001  0.000000
  0.000000  0.000000  0.000000

  0.000160  -0.000015  0.000000
  -0.000015  0.000002  0.000000
  0.000000  0.000000  0.000000

  0.000009  0.000011  0.000000
  0.000011  -0.000001  0.000000
  0.000000  0.000000  0.000000

  -0.000013  0.000011  0.000000
  0.000011  0.000001  0.000000
  0.000000  0.000000  0.000000

  0.000111  -0.000011  0.000000
  -0.000011  0.000000  0.000000
  0.000000  0.000000  0.000000

  -0.000129  -0.000000  0.000000
  -0.000000  0.000000  0.000000
  0.000000  0.000000  0.000000

  0.000008  0.000010  0.000000
  0.000010  0.000000  0.000000
  0.000000  0.000000  0.000000

  0.000007  0.000012  0.000000
  0.000012  -0.000001  0.000000
  0.000000  0.000000  0.000000

  -0.000160  0.000012  0.000000
  0.000012  -0.000003  0.000000
  0.000000  0.000000  0.000000

  -0.000174  0.000005  0.000000
  0.000005  0.000001  0.000000
  0.000000  0.000000  0.000000

  -0.000011  0.000010  0.000000
  0.000010  -0.000001  0.000000
  0.000000  0.000000  0.000000

  -0.000010  0.000011  0.000000
  0.000011  0.000000  0.000000
  0.000000  0.000000  0.000000

  0.000139  -0.000002  0.000000
  -0.000002  -0.000000  0.000000
  0.000000  0.000000  0.000000

  0.000156  -0.000009  0.000000
  -0.000009  -0.000004  0.000000
  0.000000  0.000000  0.000000

  0.000007  0.000011  0.000000
  0.000011  -0.000000  0.000000
  0.000000  0.000000  0.000000

  -0.000012  0.000011  0.000000
  0.000011  0.000001  0.000000
  0.000000  0.000000  0.000000

  0.000091  -0.000011  0.000000
  -0.000011  0.000000  0.000000
  0.000000  0.000000  0.000000

  -0.000105  -0.000001  0.000000
  -0.000001  0.000000  0.000000
  0.000000  0.000000  0.000000

  -0.000139  0.000012  0.000000
  0.000012  -0.000003  0.000000
  0.000000  0.000000  0.000000

  -0.000142  -0.000000  0.000000
  -0.000000  -0.000001  0.000000
  0.000000  0.000000  0.000000

  -0.000010  0.000010  0.000000
  0.000010  -0.000000  0.000000
  0.000000  0.000000  0.000000

  -0.000010  0.000011  0.000000
  0.000011  0.000001  0.000000
  0.000000  0.000000  0.000000

  -0.000010  0.000011  0.000000
  0.000011  0.000000  0.000000
  0.000000  0.000000  0.000000

  0.000006  0.000011  0.000000
  0.000011  0.000000  0.000000
  0.000000  0.000000  0.000000

  0.000006  0.000012  0.000000
  0.000012  -0.000001  0.000000
  0.000000  0.000000  0.000000

  0.000120  -0.000002  0.000000
  -0.000002  -0.000001  0.000000
  0.000000  0.000000  0.000000

  0.000130  -0.000013  0.000000
  -0.000013  -0.000002  0.000000
  0.000000  0.000000  0.000000

  -0.000081  -0.000003  0.000000
  -0.000003  0.000000  0.000000
  0.000000  0.000000  0.000000

  0.000004  0.000011  0.000000
  0.000011  -0.000000  0.000000
  0.000000  0.000000  0.000000

  0.000070  -0.000010  0.000000
  -0.000010  0.000000  0.000000
  0.000000  0.000000  0.000000

  -0.000059  -0.000003  0.000000
  -0.000003  0.000000  0.000000
  0.000000  0.000000  0.000000

  0.000002  0.000011  0.000000
  0.000011  -0.000000  0.000000
  0.000000  0.000000  0.000000

  -0.000008  0.000011  0.000000
  0.000011  0.000000  0.000000
  0.000000  0.000000  0.000000

  0.000047  -0.000008  0.000000
  -0.000008  0.000000  0.000000
  0.000000  0.000000  0.000000

  -0.000010  0.000011  0.000000
  0.000011  -0.000000  0.000000
  0.000000  0.000000  0.000000

  -0.000009  0.000012  0.000000
  0.000012  0.000001  0.000000
  0.000000  0.000000  0.000000

  -0.000117  0.000011  0.000000
  0.000011  -0.000003  0.000000
  0.000000  0.000000  0.000000

  -0.000117  -0.000001  0.000000
  -0.000001  -0.000001  0.000000
  0.000000  0.000000  0.000000

  0.000005  0.000011  0.000000
  0.000011  0.000000  0.000000
  0.000000  0.000000  0.000000

  0.000005  0.000013  0.000000
  0.000013  -0.000001  0.000000
  0.000000  0.000000  0.000000

  0.000101  -0.000001  0.000000
  -0.000001  -0.000001  0.000000
  0.000000  0.000000  0.000000

  0.000104  -0.000012  0.000000
  -0.000012  -0.000002  0.000000
  0.000000  0.000000  0.000000

  -0.000196  0.000015  0.000000
  0.000015  -0.000003  0.000000
  0.000000  0.000000  0.000000

  -0.000006  0.000008  0.000000
  0.000008  0.000000  0.000000
  0.000000  0.000000  0.000000

  0.000004  0.000010  0.000000
  0.000010  0.000001  0.000000
  0.000000  0.000000  0.000000

  0.000168  -0.000003  0.000000
  -0.000003  0.000000  0.000000
  0.000000  0.000000  0.000000

  -0.000150  0.000011  0.000000
  0.000011  -0.000005  0.000000
  0.000000  0.000000  0.000000

  -0.000007  0.000010  0.000000
  0.000010  -0.000000  0.000000
  0.000000  0.000000  0.000000

  0.000003  0.000012  0.000000
  0.000012  -0.000000  0.000000
  0.000000  0.000000  0.000000

  0.000003  0.000013  0.000000
  0.000013  -0.000001  0.000000
  0.000000  0.000000  0.000000

  0.000113  -0.000002  0.000000
  -0.000002  -0.000003  0.000000
  0.000000  0.000000  0.000000

  0.000116  -0.000012  0.000000
  -0.000012  -0.000003  0.000000
  0.000000  0.000000  0.000000

  -0.000128  0.000012  0.000000
  0.000012  -0.000004  0.000000
  0.000000  0.000000  0.000000

  -0.000129  0.000000  0.000000
  0.000000  -0.000003  0.000000
  0.000000  0.000000  0.000000

  -0.000007  0.000011  0.000000
  0.000011  0.000000  0.000000
  0.000000  0.000000  0.000000

  -0.000007  0.000011  0.000000
  0.000011  0.000002  0.000000
  0.000000  0.000000  0.000000

  0.000004  0.000011  0.000000
  0.000011  0.000000  0.000000
  0.000000  0.000000  0.000000

  0.000134  -0.000003  0.000000
  -0.000003  -0.000001  0.000000
  0.000000  0.000000  0.000000

  -0.000139  0.000013  0.000000
  0.000013  -0.000008  0.000000
  0.000000  0.000000  0.000000

  -0.000116  0.000011  0.000000
  0.000011  -0.000006  0.000000
  0.000000  0.000000  0.000000

  0.000001  0.000013  0.000000
  0.000013  -0.000000  0.000000
  0.000000  0.000000  0.000000

  0.000105  -0.000001  0.000000
  -0.000001  -0.000005  0.000000
  0.000000  0.000000  0.000000

  -0.000005  0.000010  0.000000
  0.000010  0.000000  0.000000
  0.000000  0.000000  0.000000

  0.000001  0.000012  0.000000
  0.000012  -0.000000  0.000000
  0.000000  0.000000  0.000000

  0.000130  -0.000002  0.000000
  -0.000002  -0.000004  0.000000
  0.000000  0.000000  0.000000

  -0.000005  0.000012  0.000000
  0.000012  0.000000  0.000000
  0.000000  0.000000  0.000000

  0.000002  0.000013  0.000000
  0.000013  0.000000  0.000000
  0.000000  0.000000  0.000000

  0.000092  -0.000001  0.000000
  -0.000001  -0.000004  0.000000
  0.000000  0.000000  0.000000

  -0.000007  0.000012  0.000000
  0.000012  -0.000000  0.000000
  0.000000  0.000000  0.000000

  -0.000104  0.000011  0.000000
  0.000011  -0.000004  0.000000
  0.000000  0.000000  0.000000

  -0.000006  0.000011  0.000000
  0.000011  0.000000  0.000000
  0.000000  0.000000  0.000000

  -0.000029  -0.000005  0.000000
  -0.000005  0.000000  0.000000
  0.000000  0.000000  0.000000

  -0.000001  0.000012  0.000000
  0.000012  -0.000000  0.000000
  0.000000  0.000000  0.000000

  0.000003  0.000011  0.000000
  0.000011  0.000000  0.000000
  0.000000  0.000000  0.000000

  0.000003  0.000013  0.000000
  0.000013  -0.000000  0.000000
  0.000000  0.000000  0.000000

  0.000001  0.000013  0.000000
  0.000013  0.000000  0.000000
  0.000000  0.000000  0.000000

  0.000081  0.000000  0.000000
  0.000000  -0.000001  0.000000
  0.000000  0.000000  0.000000

  0.000078  -0.000011  0.000000
  -0.000011  -0.000001  0.000000
  0.000000  0.000000  0.000000

  0.000071  -0.000000  0.000000
  -0.000000  -0.000004  0.000000
  0.000000  0.000000  0.000000

  0.000026  -0.000009  0.000000
  -0.000009  0.000000  0.000000
  0.000000  0.000000  0.000000

  -0.000009  0.000011  0.000000
  0.000011  -0.000000  0.000000
  0.000000  0.000000  0.000000

  -0.000009  0.000012  0.000000
  0.000012  0.000001  0.000000
  0.000000  0.000000  0.000000

  -0.000006  0.000012  0.000000
  0.000012  -0.000000  0.000000
  0.000000  0.000000  0.000000

  -0.000094  0.000010  0.000000
  0.000010  -0.000003  0.000000
  0.000000  0.000000  0.000000

  -0.000088  -0.000002  0.000000
  -0.000002  -0.000003  0.000000
  0.000000  0.000000  0.000000

  -0.000080  0.000009  0.000000
  0.000009  -0.000004  0.000000
  0.000000  0.000000  0.000000

  -0.000007  0.000011  0.000000
  0.000011  -0.000000  0.000000
  0.000000  0.000000  0.000000

  -0.000008  0.000012  0.000000
  0.000012  0.000000  0.000000
  0.000000  0.000000  0.000000

  -0.000005  0.000013  0.000000
  0.000013  0.000000  0.000000
  0.000000  0.000000  0.000000

  -0.000007  0.000011  0.000000
  0.000011  0.000000  0.000000
  0.000000  0.000000  0.000000

  -0.000071  0.000007  0.000000
  0.000007  -0.000001  0.000000
  0.000000  0.000000  0.000000

  -0.000059  -0.000002  0.000000
  -0.000002  -0.000006  0.000000
  0.000000  0.000000  0.000000

  -0.000058  0.000001  0.000000
  0.000001  0.000001  0.000000
  0.000000  0.000000  0.000000

  -0.000042  0.000007  0.000000
  0.000007  -0.000002  0.000000
  0.000000  0.000000  0.000000

  0.000001  0.000011  0.000000
  0.000011  0.000000  0.000000
  0.000000  0.000000  0.000000

  0.000002  0.000013  0.000000
  0.000013  -0.000000  0.000000
  0.000000  0.000000  0.000000

  -0.000001  0.000013  0.000000
  0.000013  0.000000  0.000000
  0.000000  0.000000  0.000000

  0.000001  0.000011  0.000000
  0.000011  -0.000000  0.000000
  0.000000  0.000000  0.000000

  0.000053  -0.000008  0.000000
  -0.000008  0.000001  0.000000
  0.000000  0.000000  0.000000

  0.000051  -0.000003  0.000000
  -0.000003  -0.000008  0.000000
  0.000000  0.000000  0.000000

  0.000060  0.000001  0.000000
  0.000001  -0.000003  0.000000
  0.000000  0.000000  0.000000

  0.000032  0.000002  0.000000
  0.000002  0.000001  0.000000
  0.000000  0.000000  0.000000

  -0.000069  -0.000002  0.000000
  -0.000002  -0.000006  0.000000
  0.000000  0.000000  0.000000

  0.000001  0.000014  0.000000
  0.000014  -0.000001  0.000000
  0.000000  0.000000  0.000000

  -0.000006  0.000013  0.000000
  0.000013  0.000001  0.000000
  0.000000  0.000000  0.000000

  0.000064  -0.000009  0.000000
  -0.000009  -0.000002  0.000000
  0.000000  0.000000  0.000000

  -0.000161  0.000002  0.000000
  0.000002  -0.000001  0.000000
  0.000000  0.000000  0.000000

  -0.000007  0.000010  0.000000
  0.000010  0.000003  0.000000
  0.000000  0.000000  0.000000

  0.000002  0.000014  0.000000
  0.000014  -0.000001  0.000000
  0.000000  0.000000  0.000000

  -0.000000  0.000014  0.000000
  0.000014  -0.000000  0.000000
  0.000000  0.000000  0.000000

  0.000130  -0.000013  0.000000
  -0.000013  -0.000002  0.000000
  0.000000  0.000000  0.000000

  -0.000007  0.000012  0.000000
  0.000012  0.000002  0.000000
  0.000000  0.000000  0.000000

  -0.000005  0.000013  0.000000
  0.000013  0.000000  0.000000
  0.000000  0.000000  0.000000

  -0.000110  -0.000001  0.000000
  -0.000001  -0.000006  0.000000
  0.000000  0.000000  0.000000

  0.000001  0.000013  0.000000
  0.000013  -0.000003  0.000000
  0.000000  0.000000  0.000000

  0.000090  -0.000011  0.000000
  -0.000011  -0.000003  0.000000
  0.000000  0.000000  0.000000

  0.000079  0.000000  0.000000
  0.000000  -0.000005  0.000000
  0.000000  0.000000  0.000000

  -0.000005  0.000012  0.000000
  0.000012  0.000003  0.000000
  0.000000  0.000000  0.000000

  -0.000100  -0.000001  0.000000
  -0.000001  -0.000005  0.000000
  0.000000  0.000000  0.000000

  -0.000088  0.000011  0.000000
  0.000011  -0.000006  0.000000
  0.000000  0.000000  0.000000

  -0.000146  0.000001  0.000000
  0.000001  -0.000005  0.000000
  0.000000  0.000000  0.000000

  -0.000005  0.000010  0.000000
  0.000010  0.000003  0.000000
  0.000000  0.000000  0.000000

  -0.000004  0.000011  0.000000
  0.000011  -0.000000  0.000000
  0.000000  0.000000  0.000000

  0.000001  0.000014  0.000000
  0.000014  -0.000002  0.000000
  0.000000  0.000000  0.000000

  0.000148  -0.000014  0.000000
  -0.000014  -0.000003  0.000000
  0.000000  0.000000  0.000000

  0.000004  0.000012  0.000000
  0.000012  -0.000002  0.000000
  0.000000  0.000000  0.000000

  -0.000017  0.000005  0.000000
  0.000005  -0.000003  0.000000
  0.000000  0.000000  0.000000

  0.000106  -0.000012  0.000000
  -0.000012  -0.000005  0.000000
  0.000000  0.000000  0.000000

  -0.000002  0.000011  0.000000
  0.000011  0.000000  0.000000
  0.000000  0.000000  0.000000

  -0.000004  0.000011  0.000000
  0.000011  0.000000  0.000000
  0.000000  0.000000  0.000000

  -0.000002  0.000013  0.000000
  0.000013  0.000000  0.000000
  0.000000  0.000000  0.000000

  0.000010  0.000005  0.000000
  0.000005  -0.000003  0.000000
  0.000000  0.000000  0.000000

  -0.000004  -0.000007  0.000000
  -0.000007  0.000000  0.000000
  0.000000  0.000000  0.000000

  0.000005  -0.000007  0.000000
  -0.000007  0.000001  0.000000
  0.000000  0.000000  0.000000

  -0.000003  0.000013  0.000000
  0.000013  0.000000  0.000000
  0.000000  0.000000  0.000000

  -0.000000  0.000014  0.000000
  0.000014  -0.000000  0.000000
  0.000000  0.000000  0.000000

  -0.000001  0.000004  0.000000
  0.000004  -0.000006  0.000000
  0.000000  0.000000  0.000000

  0.000037  -0.000008  0.000000
  -0.000008  0.000001  0.000000
  0.000000  0.000000  0.000000

  -0.000001  0.000014  0.000000
  0.000014  0.000000  0.000000
  0.000000  0.000000  0.000000

  0.000055  0.000002  0.000000
  0.000002  -0.000007  0.000000
  0.000000  0.000000  0.000000

  -0.000063  0.000006  0.000000
  0.000006  -0.000003  0.000000
  0.000000  0.000000  0.000000

  -0.000004  0.000013  0.000000
  0.000013  0.000000  0.000000
  0.000000  0.000000  0.000000

  0.000183  -0.000064  0.000000
  -0.000064  0.000013  0.000000
  0.000000  0.000000  0.000000

  0.000197  -0.000049  0.000000
  -0.000049  0.000005  0.000000
  0.000000  0.000000  0.000000

  -0.000001  -0.000003  0.000000
  -0.000003  0.000038  0.000000
  0.000000  0.000000  0.000000

  0.000158  -0.000078  0.000000
  -0.000078  0.000030  0.000000
  0.000000  0.000000  0.000000

  -0.000001  -0.000006  0.000000
  -0.000006  0.000043  0.000000
  0.000000  0.000000  0.000000

  0.000017  -0.000043  0.000000
  -0.000043  0.000082  0.000000
  0.000000  0.000000  0.000000

  0.000033  -0.000057  0.000000
  -0.000057  0.000085  0.000000
  0.000000  0.000000  0.000000

  0.000110  -0.000086  0.000000
  -0.000086  0.000058  0.000000
  0.000000  0.000000  0.000000

  0.000152  -0.000082  0.000000
  -0.000082  0.000033  0.000000
  0.000000  0.000000  0.000000

  0.000205  -0.000034  0.000000
  -0.000034  -0.000001  0.000000
  0.000000  0.000000  0.000000

  0.000208  -0.000030  0.000000
  -0.000030  -0.000004  0.000000
  0.000000  0.000000  0.000000

  0.000046  -0.000067  0.000000
  -0.000067  0.000083  0.000000
  0.000000  0.000000  0.000000

  0.000127  -0.000086  0.000000
  -0.000086  0.000049  0.000000
  0.000000  0.000000  0.000000

  0.000105  -0.000085  0.000000
  -0.000085  0.000060  0.000000
  0.000000  0.000000  0.000000

  -0.000001  0.000003  0.000000
  0.000003  0.000010  0.000000
  0.000000  0.000000  0.000000

  0.000200  -0.000045  0.000000
  -0.000045  0.000002  0.000000
  0.000000  0.000000  0.000000

  0.000085  -0.000082  0.000000
  -0.000082  0.000070  0.000000
  0.000000  0.000000  0.000000

  0.000049  -0.000068  0.000000
  -0.000068  0.000082  0.000000
  0.000000  0.000000  0.000000

  0.000188  -0.000059  0.000000
  -0.000059  0.000010  0.000000
  0.000000  0.000000  0.000000

  0.000183  -0.000063  0.000000
  -0.000063  0.000014  0.000000
  0.000000  0.000000  0.000000

  0.000132  -0.000085  0.000000
  -0.000085  0.000046  0.000000
  0.000000  0.000000  0.000000

  0.000205  -0.000033  0.000000
  -0.000033  -0.000001  0.000000
  0.000000  0.000000  0.000000

  0.000167  -0.000074  0.000000
  -0.000074  0.000025  0.000000
  0.000000  0.000000  0.000000

  0.000006  -0.000025  0.000000
  -0.000025  0.000070  0.000000
  0.000000  0.000000  0.000000

  0.000124  -0.000085  0.000000
  -0.000085  0.000050  0.000000
  0.000000  0.000000  0.000000

  0.000143  -0.000082  0.000000
  -0.000082  0.000039  0.000000
  0.000000  0.000000  0.000000

  0.000110  -0.000085  0.000000
  -0.000085  0.000058  0.000000
  0.000000  0.000000  0.000000

  0.000164  -0.000074  0.000000
  -0.000074  0.000026  0.000000
  0.000000  0.000000  0.000000

  0.000201  -0.000042  0.000000
  -0.000042  0.000000  0.000000
  0.000000  0.000000  0.000000

  0.000007  -0.000027  0.000000
  -0.000027  0.000073  0.000000
  0.000000  0.000000  0.000000

  0.000055  -0.000072  0.000000
  -0.000072  0.000081  0.000000
  0.000000  0.000000  0.000000

  0.000038  -0.000061  0.000000
  -0.000061  0.000083  0.000000
  0.000000  0.000000  0.000000

  0.000124  -0.000085  0.000000
  -0.000085  0.000050  0.000000
  0.000000  0.000000  0.000000

  -0.000001  0.000001  0.000000
  0.000001  0.000019  0.000000
  0.000000  0.000000  0.000000

  0.000033  -0.000056  0.000000
  -0.000056  0.000084  0.000000
  0.000000  0.000000  0.000000

  0.000215  -0.000009  0.000000
  -0.000009  -0.000006  0.000000
  0.000000  0.000000  0.000000

  0.000138  -0.000085  0.000000
  -0.000085  0.000042  0.000000
  0.000000  0.000000  0.000000

  -0.000000  -0.000009  0.000000
  -0.000009  0.000051  0.000000
  0.000000  0.000000  0.000000

  0.000001  -0.000016  0.000000
  -0.000016  0.000060  0.000000
  0.000000  0.000000  0.000000

  -0.000005  0.000006  0.000000
  0.000006  0.000005  0.000000
  0.000000  0.000000  0.000000

  0.000170  -0.000073  0.000000
  -0.000073  0.000023  0.000000
  0.000000  0.000000  0.000000

  -0.000002  0.000004  0.000000
  0.000004  0.000008  0.000000
  0.000000  0.000000  0.000000

  0.000212  -0.000013  0.000000
  -0.000013  -0.000006  0.000000
  0.000000  0.000000  0.000000

  0.000075  -0.000080  0.000000
  -0.000080  0.000075  0.000000
  0.000000  0.000000  0.000000

  0.000090  -0.000086  0.000000
  -0.000086  0.000068  0.000000
  0.000000  0.000000  0.000000

  0.000005  -0.000024  0.000000
  -0.000024  0.000069  0.000000
  0.000000  0.000000  0.000000

  -0.000001  -0.000008  0.000000
  -0.000008  0.000049  0.000000
  0.000000  0.000000  0.000000

  0.000002  -0.000017  0.000000
  -0.000017  0.000061  0.000000
  0.000000  0.000000  0.000000

  -0.000001  0.000001  0.000000
  0.000001  0.000021  0.000000
  0.000000  0.000000  0.000000

  -0.000000  -0.000010  0.000000
  -0.000010  0.000053  0.000000
  0.000000  0.000000  0.000000

  0.000003  -0.000020  0.000000
  -0.000020  0.000065  0.000000
  0.000000  0.000000  0.000000

  0.000016  -0.000040  0.000000
  -0.000040  0.000081  0.000000
  0.000000  0.000000  0.000000

  0.000006  -0.000026  0.000000
  -0.000026  0.000072  0.000000
  0.000000  0.000000  0.000000

  0.000191  -0.000054  0.000000
  -0.000054  0.000007  0.000000
  0.000000  0.000000  0.000000

  0.000197  -0.000049  0.000000
  -0.000049  0.000004  0.000000
  0.000000  0.000000  0.000000

  0.000174  -0.000070  0.000000
  -0.000070  0.000020  0.000000
  0.000000  0.000000  0.000000

  0.000020  -0.000045  0.000000
  -0.000045  0.000082  0.000000
  0.000000  0.000000  0.000000

  -0.000001  0.000002  0.000000
  0.000002  0.000017  0.000000
  0.000000  0.000000  0.000000

  0.000040  -0.000063  0.000000
  -0.000063  0.000085  0.000000
  0.000000  0.000000  0.000000

  0.000071  -0.000078  0.000000
  -0.000078  0.000076  0.000000
  0.000000  0.000000  0.000000

  0.000056  -0.000072  0.000000
  -0.000072  0.000080  0.000000
  0.000000  0.000000  0.000000

  0.000000  -0.000012  0.000000
  -0.000012  0.000055  0.000000
  0.000000  0.000000  0.000000

  -0.000001  -0.000007  0.000000
  -0.000007  0.000047  0.000000
  0.000000  0.000000  0.000000

  0.000191  -0.000056  0.000000
  -0.000056  0.000007  0.000000
  0.000000  0.000000  0.000000

  0.000058  -0.000074  0.000000
  -0.000074  0.000080  0.000000
  0.000000  0.000000  0.000000

  0.000163  -0.000077  0.000000
  -0.000077  0.000026  0.000000
  0.000000  0.000000  0.000000

  0.000103  -0.000085  0.000000
  -0.000085  0.000061  0.000000
  0.000000  0.000000  0.000000

  0.000085  -0.000083  0.000000
  -0.000083  0.000070  0.000000
  0.000000  0.000000  0.000000

  -0.000001  -0.000003  0.000000
  -0.000003  0.000036  0.000000
  0.000000  0.000000  0.000000

  0.000135  -0.000084  0.000000
  -0.000084  0.000043  0.000000
  0.000000  0.000000  0.000000

  -0.000001  0.000000  0.000000
  0.000000  0.000028  0.000000
  0.000000  0.000000  0.000000

  0.000204  -0.000041  0.000000
  -0.000041  0.000000  0.000000
  0.000000  0.000000  0.000000

  0.000073  -0.000079  0.000000
  -0.000079  0.000076  0.000000
  0.000000  0.000000  0.000000

  0.000106  -0.000086  0.000000
  -0.000086  0.000060  0.000000
  0.000000  0.000000  0.000000

  0.000164  -0.000075  0.000000
  -0.000075  0.000027  0.000000
  0.000000  0.000000  0.000000

  -0.000001  0.000001  0.000000
  0.000001  0.000023  0.000000
  0.000000  0.000000  0.000000

  0.000051  -0.000070  0.000000
  -0.000070  0.000083  0.000000
  0.000000  0.000000  0.000000

  0.000015  -0.000039  0.000000
  -0.000039  0.000080  0.000000
  0.000000  0.000000  0.000000

  0.000002  -0.000018  0.000000
  -0.000018  0.000063  0.000000
  0.000000  0.000000  0.000000

  0.000209  -0.000026  0.000000
  -0.000026  -0.000005  0.000000
  0.000000  0.000000  0.000000

  0.000031  -0.000055  0.000000
  -0.000055  0.000083  0.000000
  0.000000  0.000000  0.000000

  0.000028  -0.000053  0.000000
  -0.000053  0.000083  0.000000
  0.000000  0.000000  0.000000

  -0.000001  -0.000001  0.000000
  -0.000001  0.000030  0.000000
  0.000000  0.000000  0.000000

  0.000000  -0.000014  0.000000
  -0.000014  0.000059  0.000000
  0.000000  0.000000  0.000000

  0.000113  -0.000087  0.000000
  -0.000087  0.000057  0.000000
  0.000000  0.000000  0.000000

  0.000039  -0.000062  0.000000
  -0.000062  0.000083  0.000000
  0.000000  0.000000  0.000000

  0.000078  -0.000081  0.000000
  -0.000081  0.000074  0.000000
  0.000000  0.000000  0.000000

  0.000213  -0.000014  0.000000
  -0.000014  -0.000005  0.000000
  0.000000  0.000000  0.000000

  0.000034  -0.000059  0.000000
  -0.000059  0.000085  0.000000
  0.000000  0.000000  0.000000

  0.000030  -0.000054  0.000000
  -0.000054  0.000083  0.000000
  0.000000  0.000000  0.000000

  0.000213  -0.000015  0.000000
  -0.000015  -0.000007  0.000000
  0.000000  0.000000  0.000000

  0.000218  -0.000010  0.000000
  -0.000010  -0.000005  0.000000
  0.000000  0.000000  0.000000

  0.000051  -0.000069  0.000000
  -0.000069  0.000081  0.000000
  0.000000  0.000000  0.000000

  0.000121  -0.000087  0.000000
  -0.000087  0.000051  0.000000
  0.000000  0.000000  0.000000

  0.000004  -0.000021  0.000000
  -0.000021  0.000066  0.000000
  0.000000  0.000000  0.000000

  -0.000001  -0.000001  0.000000
  -0.000001  0.000032  0.000000
  0.000000  0.000000  0.000000

  0.000205  -0.000036  0.000000
  -0.000036  -0.000001  0.000000
  0.000000  0.000000  0.000000

  0.000100  -0.000084  0.000000
  -0.000084  0.000061  0.000000
  0.000000  0.000000  0.000000

  0.000012  -0.000035  0.000000
  -0.000035  0.000078  0.000000
  0.000000  0.000000  0.000000

  0.000146  -0.000082  0.000000
  -0.000082  0.000038  0.000000
  0.000000  0.000000  0.000000

  0.000180  -0.000065  0.000000
  -0.000065  0.000015  0.000000
  0.000000  0.000000  0.000000

  0.000211  -0.000023  0.000000
  -0.000023  -0.000006  0.000000
  0.000000  0.000000  0.000000

  0.000021  -0.000046  0.000000
  -0.000046  0.000082  0.000000
  0.000000  0.000000  0.000000

  0.000024  -0.000050  0.000000
  -0.000050  0.000084  0.000000
  0.000000  0.000000  0.000000

  0.000009  -0.000031  0.000000
  -0.000031  0.000075  0.000000
  0.000000  0.000000  0.000000

  0.000008  -0.000029  0.000000
  -0.000029  0.000074  0.000000
  0.000000  0.000000  0.000000

  -0.000001  -0.000001  0.000000
  -0.000001  0.000034  0.000000
  0.000000  0.000000  0.000000

  0.000083  -0.000082  0.000000
  -0.000082  0.000071  0.000000
  0.000000  0.000000  0.000000

  0.000073  -0.000078  0.000000
  -0.000078  0.000074  0.000000
  0.000000  0.000000  0.000000

  0.000013  -0.000038  0.000000
  -0.000038  0.000079  0.000000
  0.000000  0.000000  0.000000

  0.000206  -0.000032  0.000000
  -0.000032  -0.000002  0.000000
  0.000000  0.000000  0.000000

  0.000024  -0.000049  0.000000
  -0.000049  0.000083  0.000000
  0.000000  0.000000  0.000000

  -0.000001  0.000002  0.000000
  0.000002  0.000015  0.000000
  0.000000  0.000000  0.000000

  0.000066  -0.000077  0.000000
  -0.000077  0.000079  0.000000
  0.000000  0.000000  0.000000

  0.000143  -0.000082  0.000000
  -0.000082  0.000039  0.000000
  0.000000  0.000000  0.000000

  0.000114  -0.000001  0.000000
  -0.000001  -0.000003  0.000000
  0.000000  0.000000  0.000000

  0.000045  -0.000059  0.000000
  -0.000059  0.000077  0.000000
  0.000000  0.000000  0.000000

  0.000041  -0.000062  0.000000
  -0.000062  0.000075  0.000000
  0.000000  0.000000  0.000000

  0.000040  -0.000054  0.000000
  -0.000054  0.000069  0.000000
  0.000000  0.000000  0.000000

  0.000038  -0.000053  0.000000
  -0.000053  0.000070  0.000000
  0.000000  0.000000  0.000000

  0.000004  -0.000017  0.000000
  -0.000017  0.000059  0.000000
  0.000000  0.000000  0.000000

  0.000001  -0.000017  0.000000
  -0.000017  0.000060  0.000000
  0.000000  0.000000  0.000000

  0.000003  -0.000014  0.000000
  -0.000014  0.000055  0.000000
  0.000000  0.000000  0.000000

  0.000002  -0.000013  0.000000
  -0.000013  0.000053  0.000000
  0.000000  0.000000  0.000000

  -0.000000  -0.000000  0.000000
  -0.000000  0.000028  0.000000
  0.000000  0.000000  0.000000

  -0.000002  0.000001  0.000000
  0.000001  0.000028  0.000000
  0.000000  0.000000  0.000000

  -0.000001  0.000001  0.000000
  0.000001  0.000026  0.000000
  0.000000  0.000000  0.000000

  -0.000001  0.000002  0.000000
  0.000002  0.000024  0.000000
  0.000000  0.000000  0.000000

  0.000178  -0.000041  0.000000
  -0.000041  0.000009  0.000000
  0.000000  0.000000  0.000000

  0.000178  -0.000042  0.000000
  -0.000042  0.000001  0.000000
  0.000000  0.000000  0.000000

  0.000157  -0.000036  0.000000
  -0.000036  0.000007  0.000000
  0.000000  0.000000  0.000000

  0.000161  -0.000038  0.000000
  -0.000038  0.000007  0.000000
  0.000000  0.000000  0.000000

  -0.000000  0.000002  0.000000
  0.000002  0.000018  0.000000
  0.000000  0.000000  0.000000

  -0.000001  0.000004  0.000000
  0.000004  0.000018  0.000000
  0.000000  0.000000  0.000000

  -0.000001  0.000003  0.000000
  0.000003  0.000017  0.000000
  0.000000  0.000000  0.000000

  -0.000001  0.000004  0.000000
  0.000004  0.000015  0.000000
  0.000000  0.000000  0.000000

  0.000093  -0.000075  0.000000
  -0.000075  0.000059  0.000000
  0.000000  0.000000  0.000000

  0.000090  -0.000078  0.000000
  -0.000078  0.000055  0.000000
  0.000000  0.000000  0.000000

  0.000083  -0.000067  0.000000
  -0.000067  0.000052  0.000000
  0.000000  0.000000  0.000000

  0.000081  -0.000067  0.000000
  -0.000067  0.000052  0.000000
  0.000000  0.000000  0.000000

  0.000134  -0.000071  0.000000
  -0.000071  0.000037  0.000000
  0.000000  0.000000  0.000000

  -0.000017  -0.000008  0.000000
  -0.000008  -0.000003  0.000000
  0.000000  0.000000  0.000000

  -0.000033  0.000005  0.000000
  0.000005  0.000001  0.000000
  0.000000  0.000000  0.000000

  0.000130  -0.000072  0.000000
  -0.000072  0.000039  0.000000
  0.000000  0.000000  0.000000

  0.000127  -0.000076  0.000000
  -0.000076  0.000034  0.000000
  0.000000  0.000000  0.000000

  0.000117  -0.000065  0.000000
  -0.000065  0.000034  0.000000
  0.000000  0.000000  0.000000

  0.000114  -0.000066  0.000000
  -0.000066  0.000036  0.000000
  0.000000  0.000000  0.000000

  0.000039  -0.000055  0.000000
  -0.000055  0.000080  0.000000
  0.000000  0.000000  0.000000

  0.000191  -0.000014  0.000000
  -0.000014  0.000001  0.000000
  0.000000  0.000000  0.000000

  0.000191  -0.000014  0.000000
  -0.000014  -0.000007  0.000000
  0.000000  0.000000  0.000000

  0.000172  -0.000012  0.000000
  -0.000012  -0.000000  0.000000
  0.000000  0.000000  0.000000

  0.000172  -0.000014  0.000000
  -0.000014  0.000000  0.000000
  0.000000  0.000000  0.000000

  0.000186  -0.000027  0.000000
  -0.000027  0.000003  0.000000
  0.000000  0.000000  0.000000

  0.000186  -0.000029  0.000000
  -0.000029  -0.000005  0.000000
  0.000000  0.000000  0.000000

  0.000168  -0.000024  0.000000
  -0.000024  0.000002  0.000000
  0.000000  0.000000  0.000000

  0.000167  -0.000026  0.000000
  -0.000026  0.000002  0.000000
  0.000000  0.000000  0.000000

  0.000192  -0.000012  0.000000
  -0.000012  0.000001  0.000000
  0.000000  0.000000  0.000000

  0.000191  -0.000013  0.000000
  -0.000013  -0.000007  0.000000
  0.000000  0.000000  0.000000

  0.000173  -0.000010  0.000000
  -0.000010  -0.000000  0.000000
  0.000000  0.000000  0.000000

  0.000193  -0.000012  0.000000
  -0.000012  -0.000007  0.000000
  0.000000  0.000000  0.000000

  0.000193  -0.000010  0.000000
  -0.000010  0.000001  0.000000
  0.000000  0.000000  0.000000

  0.000175  -0.000009  0.000000
  -0.000009  0.000000  0.000000
  0.000000  0.000000  0.000000

  0.000173  -0.000012  0.000000
  -0.000012  -0.000008  0.000000
  0.000000  0.000000  0.000000

  0.000194  -0.000011  0.000000
  -0.000011  -0.000006  0.000000
  0.000000  0.000000  0.000000

  0.000174  -0.000011  0.000000
  -0.000011  -0.000008  0.000000
  0.000000  0.000000  0.000000

  0.000194  -0.000011  0.000000
  -0.000011  0.000001  0.000000
  0.000000  0.000000  0.000000

  0.000217  -0.000007  0.000000
  -0.000007  -0.000006  0.000000
  0.000000  0.000000  0.000000

  0.000174  -0.000007  0.000000
  -0.000007  0.000002  0.000000
  0.000000  0.000000  0.000000

  0.000151  -0.000009  0.000000
  -0.000009  0.000000  0.000000
  0.000000  0.000000  0.000000

  0.000153  -0.000009  0.000000
  -0.000009  -0.000001  0.000000
  0.000000  0.000000  0.000000

  0.000153  -0.000010  0.000000
  -0.000010  -0.000008  0.000000
  0.000000  0.000000  0.000000

  0.000131  -0.000009  0.000000
  -0.000009  -0.000001  0.000000
  0.000000  0.000000  0.000000

  0.000131  -0.000010  0.000000
  -0.000010  -0.000008  0.000000
  0.000000  0.000000  0.000000

  0.000132  -0.000009  0.000000
  -0.000009  -0.000002  0.000000
  0.000000  0.000000  0.000000

  0.000153  -0.000010  0.000000
  -0.000010  -0.000001  0.000000
  0.000000  0.000000  0.000000

  0.000132  -0.000010  0.000000
  -0.000010  -0.000010  0.000000
  0.000000  0.000000  0.000000

  0.000153  -0.000011  0.000000
  -0.000011  -0.000010  0.000000
  0.000000  0.000000  0.000000

  0.000132  -0.000010  0.000000
  -0.000010  -0.000002  0.000000
  0.000000  0.000000  0.000000

  0.000132  -0.000010  0.000000
  -0.000010  -0.000011  0.000000
  0.000000  0.000000  0.000000

  0.000152  -0.000012  0.000000
  -0.000012  -0.000010  0.000000
  0.000000  0.000000  0.000000

  0.000152  -0.000063  0.000000
  -0.000063  0.000026  0.000000
  0.000000  0.000000  0.000000

  0.000149  -0.000068  0.000000
  -0.000068  0.000020  0.000000
  0.000000  0.000000  0.000000

  0.000136  -0.000058  0.000000
  -0.000058  0.000023  0.000000
  0.000000  0.000000  0.000000

  0.000134  -0.000059  0.000000
  -0.000059  0.000024  0.000000
  0.000000  0.000000  0.000000

  0.000075  -0.000072  0.000000
  -0.000072  0.000067  0.000000
  0.000000  0.000000  0.000000

  0.000071  -0.000075  0.000000
  -0.000075  0.000065  0.000000
  0.000000  0.000000  0.000000

  0.000067  -0.000065  0.000000
  -0.000065  0.000060  0.000000
  0.000000  0.000000  0.000000

  0.000065  -0.000065  0.000000
  -0.000065  0.000061  0.000000
  0.000000  0.000000  0.000000

  -0.000156  0.000013  0.000000
  0.000013  -0.000008  0.000000
  0.000000  0.000000  0.000000

  0.000185  -0.000030  0.000000
  -0.000030  0.000004  0.000000
  0.000000  0.000000  0.000000

  0.000185  -0.000031  0.000000
  -0.000031  -0.000004  0.000000
  0.000000  0.000000  0.000000

  0.000166  -0.000029  0.000000
  -0.000029  0.000003  0.000000
  0.000000  0.000000  0.000000

  0.000166  -0.000029  0.000000
  -0.000029  -0.000006  0.000000
  0.000000  0.000000  0.000000

  0.000184  -0.000033  0.000000
  -0.000033  -0.000004  0.000000
  0.000000  0.000000  0.000000

  0.000165  -0.000030  0.000000
  -0.000030  0.000004  0.000000
  0.000000  0.000000  0.000000

  0.000184  -0.000032  0.000000
  -0.000032  0.000005  0.000000
  0.000000  0.000000  0.000000

  0.000165  -0.000031  0.000000
  -0.000031  -0.000005  0.000000
  0.000000  0.000000  0.000000

  0.000184  -0.000035  0.000000
  -0.000035  -0.000003  0.000000
  0.000000  0.000000  0.000000

  0.000165  -0.000032  0.000000
  -0.000032  0.000004  0.000000
  0.000000  0.000000  0.000000

  0.000184  -0.000033  0.000000
  -0.000033  0.000006  0.000000
  0.000000  0.000000  0.000000

  0.000165  -0.000033  0.000000
  -0.000033  -0.000004  0.000000
  0.000000  0.000000  0.000000

  0.000183  -0.000036  0.000000
  -0.000036  -0.000002  0.000000
  0.000000  0.000000  0.000000

  0.000146  -0.000026  0.000000
  -0.000026  0.000001  0.000000
  0.000000  0.000000  0.000000

  0.000146  -0.000028  0.000000
  -0.000028  -0.000008  0.000000
  0.000000  0.000000  0.000000

  0.000127  -0.000023  0.000000
  -0.000023  -0.000001  0.000000
  0.000000  0.000000  0.000000

  0.000127  -0.000025  0.000000
  -0.000025  -0.000000  0.000000
  0.000000  0.000000  0.000000

  0.000146  -0.000028  0.000000
  -0.000028  0.000002  0.000000
  0.000000  0.000000  0.000000

  0.000146  -0.000029  0.000000
  -0.000029  -0.000007  0.000000
  0.000000  0.000000  0.000000

  0.000126  -0.000026  0.000000
  -0.000026  0.000001  0.000000
  0.000000  0.000000  0.000000

  0.000126  -0.000027  0.000000
  -0.000027  -0.000008  0.000000
  0.000000  0.000000  0.000000

  0.000146  -0.000030  0.000000
  -0.000030  -0.000006  0.000000
  0.000000  0.000000  0.000000

  0.000165  -0.000034  0.000000
  -0.000034  0.000007  0.000000
  0.000000  0.000000  0.000000

  0.000146  -0.000030  0.000000
  -0.000030  0.000003  0.000000
  0.000000  0.000000  0.000000

  0.000165  -0.000035  0.000000
  -0.000035  -0.000004  0.000000
  0.000000  0.000000  0.000000

  0.000146  -0.000032  0.000000
  -0.000032  0.000004  0.000000
  0.000000  0.000000  0.000000

  0.000146  -0.000033  0.000000
  -0.000033  -0.000006  0.000000
  0.000000  0.000000  0.000000

  0.000162  -0.000039  0.000000
  -0.000039  -0.000004  0.000000
  0.000000  0.000000  0.000000

  0.000184  -0.000034  0.000000
  -0.000034  0.000006  0.000000
  0.000000  0.000000  0.000000

  0.000201  -0.000045  0.000000
  -0.000045  0.000001  0.000000
  0.000000  0.000000  0.000000

  0.000147  -0.000025  0.000000
  -0.000025  0.000001  0.000000
  0.000000  0.000000  0.000000

  0.000127  -0.000024  0.000000
  -0.000024  -0.000010  0.000000
  0.000000  0.000000  0.000000

  0.000107  -0.000022  0.000000
  -0.000022  -0.000002  0.000000
  0.000000  0.000000  0.000000

  0.000126  -0.000028  0.000000
  -0.000028  0.000001  0.000000
  0.000000  0.000000  0.000000

  0.000126  -0.000029  0.000000
  -0.000029  -0.000007  0.000000
  0.000000  0.000000  0.000000

  0.000107  -0.000024  0.000000
  -0.000024  -0.000001  0.000000
  0.000000  0.000000  0.000000

  0.000107  -0.000026  0.000000
  -0.000026  -0.000000  0.000000
  0.000000  0.000000  0.000000

  0.000106  -0.000025  0.000000
  -0.000025  -0.000010  0.000000
  0.000000  0.000000  0.000000

  0.000087  -0.000020  0.000000
  -0.000020  -0.000003  0.000000
  0.000000  0.000000  0.000000

  0.000087  -0.000022  0.000000
  -0.000022  -0.000003  0.000000
  0.000000  0.000000  0.000000

  0.000107  -0.000026  0.000000
  -0.000026  -0.000010  0.000000
  0.000000  0.000000  0.000000

  0.000086  -0.000023  0.000000
  -0.000023  -0.000002  0.000000
  0.000000  0.000000  0.000000

  0.000125  -0.000030  0.000000
  -0.000030  -0.000007  0.000000
  0.000000  0.000000  0.000000

  0.000106  -0.000023  0.000000
  -0.000023  -0.000011  0.000000
  0.000000  0.000000  0.000000

  0.000087  -0.000018  0.000000
  -0.000018  -0.000004  0.000000
  0.000000  0.000000  0.000000

  0.000107  -0.000022  0.000000
  -0.000022  -0.000011  0.000000
  0.000000  0.000000  0.000000

  0.000087  -0.000017  0.000000
  -0.000017  -0.000004  0.000000
  0.000000  0.000000  0.000000

  0.000087  -0.000019  0.000000
  -0.000019  -0.000013  0.000000
  0.000000  0.000000  0.000000

  0.000107  -0.000021  0.000000
  -0.000021  -0.000012  0.000000
  0.000000  0.000000  0.000000

  0.000087  -0.000018  0.000000
  -0.000018  -0.000013  0.000000
  0.000000  0.000000  0.000000

  0.000087  -0.000021  0.000000
  -0.000021  -0.000012  0.000000
  0.000000  0.000000  0.000000

  0.000087  -0.000021  0.000000
  -0.000021  -0.000011  0.000000
  0.000000  0.000000  0.000000

  0.000066  -0.000015  0.000000
  -0.000015  -0.000006  0.000000
  0.000000  0.000000  0.000000

  0.000066  -0.000016  0.000000
  -0.000016  -0.000014  0.000000
  0.000000  0.000000  0.000000

  0.000066  -0.000016  0.000000
  -0.000016  -0.000005  0.000000
  0.000000  0.000000  0.000000

  0.000066  -0.000017  0.000000
  -0.000017  -0.000014  0.000000
  0.000000  0.000000  0.000000

  0.000045  -0.000012  0.000000
  -0.000012  -0.000007  0.000000
  0.000000  0.000000  0.000000

  0.000045  -0.000013  0.000000
  -0.000013  -0.000015  0.000000
  0.000000  0.000000  0.000000

  0.000023  -0.000008  0.000000
  -0.000008  -0.000008  0.000000
  0.000000  0.000000  0.000000

  0.000025  -0.000009  0.000000
  -0.000009  -0.000009  0.000000
  0.000000  0.000000  0.000000

  0.000045  -0.000013  0.000000
  -0.000013  -0.000006  0.000000
  0.000000  0.000000  0.000000

  0.000045  -0.000011  0.000000
  -0.000011  -0.000007  0.000000
  0.000000  0.000000  0.000000

  0.000045  -0.000012  0.000000
  -0.000012  -0.000015  0.000000
  0.000000  0.000000  0.000000

  0.000024  -0.000008  0.000000
  -0.000008  -0.000008  0.000000
  0.000000  0.000000  0.000000

  0.000045  -0.000012  0.000000
  -0.000012  -0.000016  0.000000
  0.000000  0.000000  0.000000

  0.000024  -0.000008  0.000000
  -0.000008  -0.000016  0.000000
  0.000000  0.000000  0.000000

  0.000023  -0.000009  0.000000
  -0.000009  -0.000016  0.000000
  0.000000  0.000000  0.000000

  0.000026  -0.000009  0.000000
  -0.000009  -0.000017  0.000000
  0.000000  0.000000  0.000000

  0.000147  -0.000026  0.000000
  -0.000026  -0.000008  0.000000
  0.000000  0.000000  0.000000

  0.000128  -0.000021  0.000000
  -0.000021  -0.000001  0.000000
  0.000000  0.000000  0.000000

  0.000147  -0.000025  0.000000
  -0.000025  -0.000009  0.000000
  0.000000  0.000000  0.000000

  0.000127  -0.000023  0.000000
  -0.000023  -0.000010  0.000000
  0.000000  0.000000  0.000000

  0.000108  -0.000018  0.000000
  -0.000018  -0.000003  0.000000
  0.000000  0.000000  0.000000

  0.000128  -0.000022  0.000000
  -0.000022  -0.000011  0.000000
  0.000000  0.000000  0.000000

  0.000108  -0.000020  0.000000
  -0.000020  -0.000012  0.000000
  0.000000  0.000000  0.000000

  0.000127  -0.000026  0.000000
  -0.000026  -0.000009  0.000000
  0.000000  0.000000  0.000000

  0.000107  -0.000021  0.000000
  -0.000021  -0.000002  0.000000
  0.000000  0.000000  0.000000

  0.000087  -0.000021  0.000000
  -0.000021  -0.000012  0.000000
  0.000000  0.000000  0.000000

  0.000177  -0.000042  0.000000
  -0.000042  0.000010  0.000000
  0.000000  0.000000  0.000000

  0.000177  -0.000044  0.000000
  -0.000044  0.000001  0.000000
  0.000000  0.000000  0.000000

  0.000158  -0.000040  0.000000
  -0.000040  0.000009  0.000000
  0.000000  0.000000  0.000000

  0.000158  -0.000043  0.000000
  -0.000043  -0.000000  0.000000
  0.000000  0.000000  0.000000

  0.000176  -0.000048  0.000000
  -0.000048  0.000002  0.000000
  0.000000  0.000000  0.000000

  0.000139  -0.000036  0.000000
  -0.000036  0.000006  0.000000
  0.000000  0.000000  0.000000

  0.000138  -0.000037  0.000000
  -0.000037  0.000006  0.000000
  0.000000  0.000000  0.000000

  0.000159  -0.000040  0.000000
  -0.000040  0.000008  0.000000
  0.000000  0.000000  0.000000

  0.000177  -0.000045  0.000000
  -0.000045  0.000013  0.000000
  0.000000  0.000000  0.000000

  0.000192  -0.000055  0.000000
  -0.000055  0.000005  0.000000
  0.000000  0.000000  0.000000

  0.000074  -0.000071  0.000000
  -0.000071  0.000068  0.000000
  0.000000  0.000000  0.000000

  0.000070  -0.000075  0.000000
  -0.000075  0.000065  0.000000
  0.000000  0.000000  0.000000

  0.000063  -0.000064  0.000000
  -0.000064  0.000062  0.000000
  0.000000  0.000000  0.000000

  0.000059  -0.000068  0.000000
  -0.000068  0.000060  0.000000
  0.000000  0.000000  0.000000

  0.000068  -0.000074  0.000000
  -0.000074  0.000066  0.000000
  0.000000  0.000000  0.000000

  0.000061  -0.000064  0.000000
  -0.000064  0.000063  0.000000
  0.000000  0.000000  0.000000

  0.000073  -0.000070  0.000000
  -0.000070  0.000068  0.000000
  0.000000  0.000000  0.000000

  0.000057  -0.000067  0.000000
  -0.000067  0.000060  0.000000
  0.000000  0.000000  0.000000

  0.000066  -0.000073  0.000000
  -0.000073  0.000067  0.000000
  0.000000  0.000000  0.000000

  0.000059  -0.000063  0.000000
  -0.000063  0.000064  0.000000
  0.000000  0.000000  0.000000

  0.000071  -0.000070  0.000000
  -0.000070  0.000068  0.000000
  0.000000  0.000000  0.000000

  0.000055  -0.000066  0.000000
  -0.000066  0.000062  0.000000
  0.000000  0.000000  0.000000

  0.000063  -0.000072  0.000000
  -0.000072  0.000067  0.000000
  0.000000  0.000000  0.000000

  0.000057  -0.000062  0.000000
  -0.000062  0.000065  0.000000
  0.000000  0.000000  0.000000

  0.000067  -0.000069  0.000000
  -0.000069  0.000070  0.000000
  0.000000  0.000000  0.000000

  0.000053  -0.000066  0.000000
  -0.000066  0.000062  0.000000
  0.000000  0.000000  0.000000

  0.000061  -0.000072  0.000000
  -0.000072  0.000068  0.000000
  0.000000  0.000000  0.000000

  0.000055  -0.000062  0.000000
  -0.000062  0.000066  0.000000
  0.000000  0.000000  0.000000

  0.000065  -0.000068  0.000000
  -0.000068  0.000071  0.000000
  0.000000  0.000000  0.000000

  0.000051  -0.000065  0.000000
  -0.000065  0.000063  0.000000
  0.000000  0.000000  0.000000

  0.000059  -0.000071  0.000000
  -0.000071  0.000069  0.000000
  0.000000  0.000000  0.000000

  0.000054  -0.000061  0.000000
  -0.000061  0.000066  0.000000
  0.000000  0.000000  0.000000

  0.000064  -0.000068  0.000000
  -0.000068  0.000071  0.000000
  0.000000  0.000000  0.000000

  0.000049  -0.000064  0.000000
  -0.000064  0.000064  0.000000
  0.000000  0.000000  0.000000

  0.000059  -0.000070  0.000000
  -0.000070  0.000070  0.000000
  0.000000  0.000000  0.000000

  0.000050  -0.000056  0.000000
  -0.000056  0.000058  0.000000
  0.000000  0.000000  0.000000

  0.000045  -0.000059  0.000000
  -0.000059  0.000055  0.000000
  0.000000  0.000000  0.000000

  0.000042  -0.000050  0.000000
  -0.000050  0.000051  0.000000
  0.000000  0.000000  0.000000

  0.000040  -0.000049  0.000000
  -0.000049  0.000052  0.000000
  0.000000  0.000000  0.000000

  0.000048  -0.000056  0.000000
  -0.000056  0.000058  0.000000
  0.000000  0.000000  0.000000

  0.000044  -0.000059  0.000000
  -0.000059  0.000056  0.000000
  0.000000  0.000000  0.000000

  0.000038  -0.000049  0.000000
  -0.000049  0.000053  0.000000
  0.000000  0.000000  0.000000

  0.000035  -0.000052  0.000000
  -0.000052  0.000050  0.000000
  0.000000  0.000000  0.000000

  0.000043  -0.000058  0.000000
  -0.000058  0.000057  0.000000
  0.000000  0.000000  0.000000

  0.000036  -0.000048  0.000000
  -0.000048  0.000054  0.000000
  0.000000  0.000000  0.000000

  0.000046  -0.000055  0.000000
  -0.000055  0.000059  0.000000
  0.000000  0.000000  0.000000

  0.000033  -0.000051  0.000000
  -0.000051  0.000051  0.000000
  0.000000  0.000000  0.000000

  0.000042  -0.000058  0.000000
  -0.000058  0.000057  0.000000
  0.000000  0.000000  0.000000

  0.000053  -0.000060  0.000000
  -0.000060  0.000067  0.000000
  0.000000  0.000000  0.000000

  0.000029  -0.000042  0.000000
  -0.000042  0.000046  0.000000
  0.000000  0.000000  0.000000

  0.000026  -0.000045  0.000000
  -0.000045  0.000043  0.000000
  0.000000  0.000000  0.000000

  0.000021  -0.000035  0.000000
  -0.000035  0.000039  0.000000
  0.000000  0.000000  0.000000

  0.000020  -0.000035  0.000000
  -0.000035  0.000040  0.000000
  0.000000  0.000000  0.000000

  0.000028  -0.000042  0.000000
  -0.000042  0.000047  0.000000
  0.000000  0.000000  0.000000

  0.000044  -0.000054  0.000000
  -0.000054  0.000061  0.000000
  0.000000  0.000000  0.000000

  0.000048  -0.000064  0.000000
  -0.000064  0.000065  0.000000
  0.000000  0.000000  0.000000

  0.000042  -0.000054  0.000000
  -0.000054  0.000062  0.000000
  0.000000  0.000000  0.000000

  0.000039  -0.000057  0.000000
  -0.000057  0.000060  0.000000
  0.000000  0.000000  0.000000

  0.000052  -0.000063  0.000000
  -0.000063  0.000063  0.000000
  0.000000  0.000000  0.000000

  0.000063  -0.000067  0.000000
  -0.000067  0.000071  0.000000
  0.000000  0.000000  0.000000

  0.000062  -0.000077  0.000000
  -0.000077  0.000081  0.000000
  0.000000  0.000000  0.000000

  0.000036  -0.000048  0.000000
  -0.000048  0.000054  0.000000
  0.000000  0.000000  0.000000

  0.000033  -0.000051  0.000000
  -0.000051  0.000052  0.000000
  0.000000  0.000000  0.000000

  0.000026  -0.000042  0.000000
  -0.000042  0.000049  0.000000
  0.000000  0.000000  0.000000

  0.000025  -0.000044  0.000000
  -0.000044  0.000045  0.000000
  0.000000  0.000000  0.000000

  0.000033  -0.000051  0.000000
  -0.000051  0.000051  0.000000
  0.000000  0.000000  0.000000

  0.000053  -0.000057  0.000000
  -0.000057  0.000056  0.000000
  0.000000  0.000000  0.000000

  0.000049  -0.000061  0.000000
  -0.000061  0.000054  0.000000
  0.000000  0.000000  0.000000

  0.000044  -0.000051  0.000000
  -0.000051  0.000049  0.000000
  0.000000  0.000000  0.000000

  0.000043  -0.000050  0.000000
  -0.000050  0.000050  0.000000
  0.000000  0.000000  0.000000

  0.000039  -0.000053  0.000000
  -0.000053  0.000047  0.000000
  0.000000  0.000000  0.000000

  0.000047  -0.000060  0.000000
  -0.000060  0.000055  0.000000
  0.000000  0.000000  0.000000

  0.000034  -0.000044  0.000000
  -0.000044  0.000043  0.000000
  0.000000  0.000000  0.000000

  0.000032  -0.000043  0.000000
  -0.000043  0.000045  0.000000
  0.000000  0.000000  0.000000

  0.000051  -0.000057  0.000000
  -0.000057  0.000057  0.000000
  0.000000  0.000000  0.000000

  0.000035  -0.000048  0.000000
  -0.000048  0.000056  0.000000
  0.000000  0.000000  0.000000

  0.000040  -0.000058  0.000000
  -0.000058  0.000060  0.000000
  0.000000  0.000000  0.000000

  0.000035  -0.000048  0.000000
  -0.000048  0.000056  0.000000
  0.000000  0.000000  0.000000

  0.000042  -0.000055  0.000000
  -0.000055  0.000064  0.000000
  0.000000  0.000000  0.000000

  0.000030  -0.000051  0.000000
  -0.000051  0.000055  0.000000
  0.000000  0.000000  0.000000

  0.000040  -0.000058  0.000000
  -0.000058  0.000061  0.000000
  0.000000  0.000000  0.000000

  0.000030  -0.000046  0.000000
  -0.000046  0.000041  0.000000
  0.000000  0.000000  0.000000

  0.000018  -0.000035  0.000000
  -0.000035  0.000043  0.000000
  0.000000  0.000000  0.000000

  0.000040  -0.000054  0.000000
  -0.000054  0.000047  0.000000
  0.000000  0.000000  0.000000

  0.000036  -0.000044  0.000000
  -0.000044  0.000042  0.000000
  0.000000  0.000000  0.000000

  0.000042  -0.000055  0.000000
  -0.000055  0.000046  0.000000
  0.000000  0.000000  0.000000

  0.000032  -0.000047  0.000000
  -0.000047  0.000040  0.000000
  0.000000  0.000000  0.000000

  0.000026  -0.000042  0.000000
  -0.000042  0.000050  0.000000
  0.000000  0.000000  0.000000

  0.000026  -0.000044  0.000000
  -0.000044  0.000046  0.000000
  0.000000  0.000000  0.000000

  0.000017  -0.000036  0.000000
  -0.000036  0.000047  0.000000
  0.000000  0.000000  0.000000

  0.000018  -0.000038  0.000000
  -0.000038  0.000039  0.000000
  0.000000  0.000000  0.000000

  0.000027  -0.000042  0.000000
  -0.000042  0.000054  0.000000
  0.000000  0.000000  0.000000

  0.000010  -0.000029  0.000000
  -0.000029  0.000038  0.000000
  0.000000  0.000000  0.000000

  0.000010  -0.000030  0.000000
  -0.000030  0.000041  0.000000
  0.000000  0.000000  0.000000

  0.000038  -0.000053  0.000000
  -0.000053  0.000048  0.000000
  0.000000  0.000000  0.000000

  0.000031  -0.000043  0.000000
  -0.000043  0.000045  0.000000
  0.000000  0.000000  0.000000

  0.000028  -0.000046  0.000000
  -0.000046  0.000042  0.000000
  0.000000  0.000000  0.000000

  0.000036  -0.000053  0.000000
  -0.000053  0.000049  0.000000
  0.000000  0.000000  0.000000

  0.000030  -0.000042  0.000000
  -0.000042  0.000045  0.000000
  0.000000  0.000000  0.000000

  0.000026  -0.000045  0.000000
  -0.000045  0.000043  0.000000
  0.000000  0.000000  0.000000

  0.000023  -0.000036  0.000000
  -0.000036  0.000037  0.000000
  0.000000  0.000000  0.000000

  0.000020  -0.000039  0.000000
  -0.000039  0.000035  0.000000
  0.000000  0.000000  0.000000

  0.000015  -0.000029  0.000000
  -0.000029  0.000030  0.000000
  0.000000  0.000000  0.000000

  0.000013  -0.000029  0.000000
  -0.000029  0.000032  0.000000
  0.000000  0.000000  0.000000

  0.000023  -0.000036  0.000000
  -0.000036  0.000038  0.000000
  0.000000  0.000000  0.000000

  0.000019  -0.000039  0.000000
  -0.000039  0.000035  0.000000
  0.000000  0.000000  0.000000

  0.000012  -0.000029  0.000000
  -0.000029  0.000033  0.000000
  0.000000  0.000000  0.000000

  0.000011  -0.000032  0.000000
  -0.000032  0.000029  0.000000
  0.000000  0.000000  0.000000

  0.000018  -0.000038  0.000000
  -0.000038  0.000035  0.000000
  0.000000  0.000000  0.000000

  0.000012  -0.000028  0.000000
  -0.000028  0.000033  0.000000
  0.000000  0.000000  0.000000

  0.000009  -0.000031  0.000000
  -0.000031  0.000030  0.000000
  0.000000  0.000000  0.000000

  0.000018  -0.000038  0.000000
  -0.000038  0.000036  0.000000
  0.000000  0.000000  0.000000

  0.000012  -0.000028  0.000000
  -0.000028  0.000033  0.000000
  0.000000  0.000000  0.000000

  0.000009  -0.000031  0.000000
  -0.000031  0.000030  0.000000
  0.000000  0.000000  0.000000

  0.000017  -0.000038  0.000000
  -0.000038  0.000037  0.000000
  0.000000  0.000000  0.000000

  0.000011  -0.000028  0.000000
  -0.000028  0.000035  0.000000
  0.000000  0.000000  0.000000

  0.000005  -0.000021  0.000000
  -0.000021  0.000024  0.000000
  0.000000  0.000000  0.000000

  0.000004  -0.000021  0.000000
  -0.000021  0.000025  0.000000
  0.000000  0.000000  0.000000

  0.000002  -0.000024  0.000000
  -0.000024  0.000022  0.000000
  0.000000  0.000000  0.000000

  -0.000003  -0.000014  0.000000
  -0.000014  0.000017  0.000000
  0.000000  0.000000  0.000000

  -0.000004  -0.000014  0.000000
  -0.000014  0.000018  0.000000
  0.000000  0.000000  0.000000

  0.000004  -0.000021  0.000000
  -0.000021  0.000025  0.000000
  0.000000  0.000000  0.000000

  0.000002  -0.000024  0.000000
  -0.000024  0.000022  0.000000
  0.000000  0.000000  0.000000

  -0.000005  -0.000013  0.000000
  -0.000013  0.000019  0.000000
  0.000000  0.000000  0.000000

  -0.000007  -0.000016  0.000000
  -0.000016  0.000015  0.000000
  0.000000  0.000000  0.000000

  0.000002  -0.000024  0.000000
  -0.000024  0.000023  0.000000
  0.000000  0.000000  0.000000

  0.000003  -0.000021  0.000000
  -0.000021  0.000027  0.000000
  0.000000  0.000000  0.000000

  0.000008  -0.000031  0.000000
  -0.000031  0.000031  0.000000
  0.000000  0.000000  0.000000

  0.000020  -0.000039  0.000000
  -0.000039  0.000034  0.000000
  0.000000  0.000000  0.000000

  0.000011  -0.000032  0.000000
  -0.000032  0.000028  0.000000
  0.000000  0.000000  0.000000

  0.000005  -0.000021  0.000000
  -0.000021  0.000023  0.000000
  0.000000  0.000000  0.000000

  0.000011  -0.000032  0.000000
  -0.000032  0.000027  0.000000
  0.000000  0.000000  0.000000

  0.000003  -0.000024  0.000000
  -0.000024  0.000020  0.000000
  0.000000  0.000000  0.000000

  0.000006  -0.000021  0.000000
  -0.000021  0.000023  0.000000
  0.000000  0.000000  0.000000

  -0.000012  -0.000006  0.000000
  -0.000006  0.000010  0.000000
  0.000000  0.000000  0.000000

  -0.000007  -0.000017  0.000000
  -0.000017  0.000014  0.000000
  0.000000  0.000000  0.000000

  -0.000005  -0.000014  0.000000
  -0.000014  0.000020  0.000000
  0.000000  0.000000  0.000000

  0.000002  -0.000024  0.000000
  -0.000024  0.000021  0.000000
  0.000000  0.000000  0.000000

  -0.000004  -0.000014  0.000000
  -0.000014  0.000016  0.000000
  0.000000  0.000000  0.000000

  -0.000005  -0.000016  0.000000
  -0.000016  0.000013  0.000000
  0.000000  0.000000  0.000000

  -0.000012  -0.000006  0.000000
  -0.000006  0.000008  0.000000
  0.000000  0.000000  0.000000

  -0.000013  -0.000006  0.000000
  -0.000006  0.000009  0.000000
  0.000000  0.000000  0.000000

  -0.000014  -0.000008  0.000000
  -0.000008  0.000006  0.000000
  0.000000  0.000000  0.000000

  -0.000020  0.000002  0.000000
  0.000002  0.000000  0.000000
  0.000000  0.000000  0.000000

  -0.000021  0.000002  0.000000
  0.000002  0.000002  0.000000
  0.000000  0.000000  0.000000

  -0.000015  -0.000009  0.000000
  -0.000009  0.000005  0.000000
  0.000000  0.000000  0.000000

  -0.000021  0.000002  0.000000
  0.000002  0.000000  0.000000
  0.000000  0.000000  0.000000

  -0.000015  -0.000009  0.000000
  -0.000009  0.000005  0.000000
  0.000000  0.000000  0.000000

  -0.000023  -0.000001  0.000000
  -0.000001  -0.000003  0.000000
  0.000000  0.000000  0.000000

  -0.000023  -0.000001  0.000000
  -0.000001  -0.000002  0.000000
  0.000000  0.000000  0.000000

  -0.000022  -0.000001  0.000000
  -0.000001  -0.000003  0.000000
  0.000000  0.000000  0.000000

  -0.000014  -0.000009  0.000000
  -0.000009  0.000005  0.000000
  0.000000  0.000000  0.000000

  -0.000021  0.000002  0.000000
  0.000002  0.000003  0.000000
  0.000000  0.000000  0.000000

  -0.000022  -0.000001  0.000000
  -0.000001  -0.000001  0.000000
  0.000000  0.000000  0.000000

  -0.000014  -0.000009  0.000000
  -0.000009  0.000006  0.000000
  0.000000  0.000000  0.000000

  -0.000020  0.000001  0.000000
  0.000001  0.000003  0.000000
  0.000000  0.000000  0.000000

  -0.000022  -0.000001  0.000000
  -0.000001  -0.000001  0.000000
  0.000000  0.000000  0.000000

  -0.000013  -0.000009  0.000000
  -0.000009  0.000007  0.000000
  0.000000  0.000000  0.000000

  -0.000006  -0.000017  0.000000
  -0.000017  0.000012  0.000000
  0.000000  0.000000  0.000000

  -0.000030  0.000010  0.000000
  0.000010  -0.000008  0.000000
  0.000000  0.000000  0.000000

  -0.000032  0.000008  0.000000
  0.000008  -0.000011  0.000000
  0.000000  0.000000  0.000000

  -0.000038  0.000019  0.000000
  0.000019  -0.000016  0.000000
  0.000000  0.000000  0.000000

  -0.000038  0.000019  0.000000
  0.000019  -0.000015  0.000000
  0.000000  0.000000  0.000000

  -0.000012  -0.000006  0.000000
  -0.000006  0.000012  0.000000
  0.000000  0.000000  0.000000

  -0.000006  -0.000017  0.000000
  -0.000017  0.000016  0.000000
  0.000000  0.000000  0.000000

  -0.000011  -0.000007  0.000000
  -0.000007  0.000012  0.000000
  0.000000  0.000000  0.000000

  -0.000020  0.000002  0.000000
  0.000002  -0.000000  0.000000
  0.000000  0.000000  0.000000

  -0.000027  0.000009  0.000000
  0.000009  -0.000006  0.000000
  0.000000  0.000000  0.000000

  -0.000012  -0.000006  0.000000
  -0.000006  0.000008  0.000000
  0.000000  0.000000  0.000000

  -0.000006  -0.000017  0.000000
  -0.000017  0.000012  0.000000
  0.000000  0.000000  0.000000

  -0.000003  -0.000014  0.000000
  -0.000014  0.000015  0.000000
  0.000000  0.000000  0.000000

  -0.000011  -0.000007  0.000000
  -0.000007  0.000008  0.000000
  0.000000  0.000000  0.000000

  0.000004  -0.000025  0.000000
  -0.000025  0.000019  0.000000
  0.000000  0.000000  0.000000

  0.000007  -0.000022  0.000000
  -0.000022  0.000022  0.000000
  0.000000  0.000000  0.000000

  -0.000002  -0.000015  0.000000
  -0.000015  0.000015  0.000000
  0.000000  0.000000  0.000000

  -0.000030  0.000010  0.000000
  0.000010  -0.000008  0.000000
  0.000000  0.000000  0.000000

  -0.000028  0.000010  0.000000
  0.000010  -0.000006  0.000000
  0.000000  0.000000  0.000000

  -0.000029  0.000007  0.000000
  0.000007  -0.000009  0.000000
  0.000000  0.000000  0.000000

  -0.000036  0.000018  0.000000
  0.000018  -0.000015  0.000000
  0.000000  0.000000  0.000000

  -0.000036  0.000018  0.000000
  0.000018  -0.000014  0.000000
  0.000000  0.000000  0.000000

  -0.000020  0.000001  0.000000
  0.000001  0.000005  0.000000
  0.000000  0.000000  0.000000

  -0.000029  0.000010  0.000000
  0.000010  -0.000006  0.000000
  0.000000  0.000000  0.000000

  -0.000030  0.000007  0.000000
  0.000007  -0.000010  0.000000
  0.000000  0.000000  0.000000

  -0.000037  0.000018  0.000000
  0.000018  -0.000016  0.000000
  0.000000  0.000000  0.000000

  -0.000038  0.000016  0.000000
  0.000016  -0.000019  0.000000
  0.000000  0.000000  0.000000

  -0.000046  0.000027  0.000000
  0.000027  -0.000024  0.000000
  0.000000  0.000000  0.000000

  -0.000045  0.000027  0.000000
  0.000027  -0.000023  0.000000
  0.000000  0.000000  0.000000

  -0.000039  0.000016  0.000000
  0.000016  -0.000020  0.000000
  0.000000  0.000000  0.000000

  -0.000005  -0.000018  0.000000
  -0.000018  0.000012  0.000000
  0.000000  0.000000  0.000000

  -0.000012  -0.000007  0.000000
  -0.000007  0.000007  0.000000
  0.000000  0.000000  0.000000

  -0.000005  -0.000018  0.000000
  -0.000018  0.000011  0.000000
  0.000000  0.000000  0.000000

  -0.000014  -0.000009  0.000000
  -0.000009  0.000004  0.000000
  0.000000  0.000000  0.000000

  -0.000032  0.000008  0.000000
  0.000008  -0.000011  0.000000
  0.000000  0.000000  0.000000

  -0.000039  0.000019  0.000000
  0.000019  -0.000016  0.000000
  0.000000  0.000000  0.000000

  -0.000033  0.000007  0.000000
  0.000007  -0.000011  0.000000
  0.000000  0.000000  0.000000

  -0.000041  0.000016  0.000000
  0.000016  -0.000020  0.000000
  0.000000  0.000000  0.000000

  -0.000030  0.000010  0.000000
  0.000010  -0.000008  0.000000
  0.000000  0.000000  0.000000

  -0.000039  0.000019  0.000000
  0.000019  -0.000016  0.000000
  0.000000  0.000000  0.000000

  -0.000048  0.000028  0.000000
  0.000028  -0.000024  0.000000
  0.000000  0.000000  0.000000

  -0.000015  -0.000010  0.000000
  -0.000010  0.000005  0.000000
  0.000000  0.000000  0.000000

  -0.000021  0.000001  0.000000
  0.000001  -0.000000  0.000000
  0.000000  0.000000  0.000000

  -0.000023  -0.000001  0.000000
  -0.000001  -0.000003  0.000000
  0.000000  0.000000  0.000000

  -0.000029  0.000010  0.000000
  0.000010  -0.000009  0.000000
  0.000000  0.000000  0.000000

  -0.000024  -0.000002  0.000000
  -0.000002  -0.000002  0.000000
  0.000000  0.000000  0.000000

  -0.000033  0.000007  0.000000
  0.000007  -0.000011  0.000000
  0.000000  0.000000  0.000000

  -0.000039  0.000018  0.000000
  0.000018  -0.000016  0.000000
  0.000000  0.000000  0.000000

  -0.000020  0.000001  0.000000
  0.000001  -0.000000  0.000000
  0.000000  0.000000  0.000000

  -0.000014  -0.000010  0.000000
  -0.000010  0.000004  0.000000
  0.000000  0.000000  0.000000

  -0.000010  -0.000007  0.000000
  -0.000007  0.000007  0.000000
  0.000000  0.000000  0.000000

  -0.000020  0.000000  0.000000
  0.000000  0.000000  0.000000
  0.000000  0.000000  0.000000

  -0.000004  -0.000019  0.000000
  -0.000019  0.000011  0.000000
  0.000000  0.000000  0.000000

  0.000000  -0.000016  0.000000
  -0.000016  0.000014  0.000000
  0.000000  0.000000  0.000000

  -0.000010  -0.000008  0.000000
  -0.000008  0.000007  0.000000
  0.000000  0.000000  0.000000

  -0.000033  0.000006  0.000000
  0.000006  -0.000010  0.000000
  0.000000  0.000000  0.000000

  -0.000042  0.000016  0.000000
  0.000016  -0.000019  0.000000
  0.000000  0.000000  0.000000

  -0.000013  -0.000011  0.000000
  -0.000011  0.000004  0.000000
  0.000000  0.000000  0.000000

  -0.000020  0.000000  0.000000
  0.000000  -0.000000  0.000000
  0.000000  0.000000  0.000000

  -0.000023  -0.000003  0.000000
  -0.000003  -0.000003  0.000000
  0.000000  0.000000  0.000000

  -0.000028  0.000009  0.000000
  0.000009  -0.000008  0.000000
  0.000000  0.000000  0.000000

  -0.000023  -0.000003  0.000000
  -0.000003  -0.000003  0.000000
  0.000000  0.000000  0.000000

  -0.000032  0.000006  0.000000
  0.000006  -0.000010  0.000000
  0.000000  0.000000  0.000000

  -0.000029  0.000009  0.000000
  0.000009  -0.000008  0.000000
  0.000000  0.000000  0.000000

  -0.000023  -0.000003  0.000000
  -0.000003  -0.000002  0.000000
  0.000000  0.000000  0.000000

  -0.000032  0.000006  0.000000
  0.000006  -0.000011  0.000000
  0.000000  0.000000  0.000000

  -0.000018  -0.000000  0.000000
  -0.000000  -0.000001  0.000000
  0.000000  0.000000  0.000000

  -0.000028  0.000008  0.000000
  0.000008  -0.000008  0.000000
  0.000000  0.000000  0.000000

  -0.000040  0.000017  0.000000
  0.000017  -0.000015  0.000000
  0.000000  0.000000  0.000000

  -0.000040  0.000017  0.000000
  0.000017  -0.000015  0.000000
  0.000000  0.000000  0.000000

  -0.000042  0.000015  0.000000
  0.000015  -0.000018  0.000000
  0.000000  0.000000  0.000000

  -0.000050  0.000026  0.000000
  0.000026  -0.000023  0.000000
  0.000000  0.000000  0.000000

  -0.000050  0.000026  0.000000
  0.000026  -0.000022  0.000000
  0.000000  0.000000  0.000000

  -0.000028  0.000009  0.000000
  0.000009  -0.000009  0.000000
  0.000000  0.000000  0.000000

  0.000006  -0.000027  0.000000
  -0.000027  0.000019  0.000000
  0.000000  0.000000  0.000000

  -0.000013  -0.000011  0.000000
  -0.000011  0.000005  0.000000
  0.000000  0.000000  0.000000

  -0.000009  -0.000009  0.000000
  -0.000009  0.000006  0.000000
  0.000000  0.000000  0.000000

  -0.000003  -0.000019  0.000000
  -0.000019  0.000012  0.000000
  0.000000  0.000000  0.000000

  -0.000002  -0.000020  0.000000
  -0.000020  0.000012  0.000000
  0.000000  0.000000  0.000000

  0.000001  -0.000016  0.000000
  -0.000016  0.000014  0.000000
  0.000000  0.000000  0.000000

  0.000009  -0.000028  0.000000
  -0.000028  0.000018  0.000000
  0.000000  0.000000  0.000000

  -0.000039  0.000018  0.000000
  0.000018  -0.000016  0.000000
  0.000000  0.000000  0.000000

  -0.000041  0.000015  0.000000
  0.000015  -0.000019  0.000000
  0.000000  0.000000  0.000000

  -0.000050  0.000027  0.000000
  0.000027  -0.000024  0.000000
  0.000000  0.000000  0.000000

  -0.000052  0.000025  0.000000
  0.000025  -0.000026  0.000000
  0.000000  0.000000  0.000000

  -0.000056  0.000035  0.000000
  0.000035  -0.000033  0.000000
  0.000000  0.000000  0.000000

  -0.000059  0.000037  0.000000
  0.000037  -0.000032  0.000000
  0.000000  0.000000  0.000000

  -0.000053  0.000024  0.000000
  0.000024  -0.000025  0.000000
  0.000000  0.000000  0.000000

  -0.000058  0.000035  0.000000
  0.000035  -0.000031  0.000000
  0.000000  0.000000  0.000000

  -0.000054  0.000023  0.000000
  0.000023  -0.000025  0.000000
  0.000000  0.000000  0.000000

  -0.000059  0.000035  0.000000
  0.000035  -0.000030  0.000000
  0.000000  0.000000  0.000000

  -0.000061  0.000033  0.000000
  0.000033  -0.000033  0.000000
  0.000000  0.000000  0.000000

  -0.000054  0.000023  0.000000
  0.000023  -0.000024  0.000000
  0.000000  0.000000  0.000000

  -0.000062  0.000033  0.000000
  0.000033  -0.000033  0.000000
  0.000000  0.000000  0.000000

  -0.000070  0.000045  0.000000
  0.000045  -0.000038  0.000000
  0.000000  0.000000  0.000000

  -0.000072  0.000043  0.000000
  0.000043  -0.000042  0.000000
  0.000000  0.000000  0.000000

  -0.000069  0.000045  0.000000
  0.000045  -0.000038  0.000000
  0.000000  0.000000  0.000000

  -0.000081  0.000055  0.000000
  0.000055  -0.000046  0.000000
  0.000000  0.000000  0.000000

  -0.000080  0.000055  0.000000
  0.000055  -0.000046  0.000000
  0.000000  0.000000  0.000000

  -0.000061  0.000033  0.000000
  0.000033  -0.000034  0.000000
  0.000000  0.000000  0.000000

  -0.000068  0.000046  0.000000
  0.000046  -0.000040  0.000000
  0.000000  0.000000  0.000000

  -0.000071  0.000043  0.000000
  0.000043  -0.000041  0.000000
  0.000000  0.000000  0.000000

  -0.000060  0.000034  0.000000
  0.000034  -0.000036  0.000000
  0.000000  0.000000  0.000000

  -0.000067  0.000046  0.000000
  0.000046  -0.000041  0.000000
  0.000000  0.000000  0.000000

  -0.000070  0.000044  0.000000
  0.000044  -0.000043  0.000000
  0.000000  0.000000  0.000000

  -0.000059  0.000034  0.000000
  0.000034  -0.000036  0.000000
  0.000000  0.000000  0.000000

  -0.000078  0.000055  0.000000
  0.000055  -0.000049  0.000000
  0.000000  0.000000  0.000000

  -0.000080  0.000053  0.000000
  0.000053  -0.000050  0.000000
  0.000000  0.000000  0.000000

  -0.000070  0.000042  0.000000
  0.000042  -0.000042  0.000000
  0.000000  0.000000  0.000000

  -0.000087  0.000066  0.000000
  0.000066  -0.000058  0.000000
  0.000000  0.000000  0.000000

  -0.000087  0.000066  0.000000
  0.000066  -0.000057  0.000000
  0.000000  0.000000  0.000000

  -0.000076  0.000056  0.000000
  0.000056  -0.000050  0.000000
  0.000000  0.000000  0.000000

  -0.000089  0.000064  0.000000
  0.000064  -0.000060  0.000000
  0.000000  0.000000  0.000000

  -0.000078  0.000053  0.000000
  0.000053  -0.000053  0.000000
  0.000000  0.000000  0.000000

  -0.000084  0.000066  0.000000
  0.000066  -0.000058  0.000000
  0.000000  0.000000  0.000000

  -0.000088  0.000063  0.000000
  0.000063  -0.000060  0.000000
  0.000000  0.000000  0.000000

  -0.000077  0.000054  0.000000
  0.000054  -0.000054  0.000000
  0.000000  0.000000  0.000000

  -0.000083  0.000052  0.000000
  0.000052  -0.000049  0.000000
  0.000000  0.000000  0.000000

  -0.000089  0.000065  0.000000
  0.000065  -0.000055  0.000000
  0.000000  0.000000  0.000000

  -0.000084  0.000052  0.000000
  0.000052  -0.000049  0.000000
  0.000000  0.000000  0.000000

  -0.000091  0.000065  0.000000
  0.000065  -0.000054  0.000000
  0.000000  0.000000  0.000000

  -0.000091  0.000062  0.000000
  0.000062  -0.000058  0.000000
  0.000000  0.000000  0.000000

  -0.000085  0.000052  0.000000
  0.000052  -0.000047  0.000000
  0.000000  0.000000  0.000000

  -0.000093  0.000062  0.000000
  0.000062  -0.000057  0.000000
  0.000000  0.000000  0.000000

  -0.000102  0.000075  0.000000
  0.000075  -0.000062  0.000000
  0.000000  0.000000  0.000000

  -0.000101  0.000074  0.000000
  0.000074  -0.000066  0.000000
  0.000000  0.000000  0.000000

  -0.000116  0.000089  0.000000
  0.000089  -0.000074  0.000000
  0.000000  0.000000  0.000000

  -0.000114  0.000092  0.000000
  0.000092  -0.000078  0.000000
  0.000000  0.000000  0.000000

  -0.000101  0.000078  0.000000
  0.000078  -0.000067  0.000000
  0.000000  0.000000  0.000000

  -0.000101  0.000077  0.000000
  0.000077  -0.000069  0.000000
  0.000000  0.000000  0.000000

  -0.000087  0.000064  0.000000
  0.000064  -0.000061  0.000000
  0.000000  0.000000  0.000000

  -0.000051  0.000025  0.000000
  0.000025  -0.000027  0.000000
  0.000000  0.000000  0.000000

  -0.000095  0.000075  0.000000
  0.000075  -0.000067  0.000000
  0.000000  0.000000  0.000000

  -0.000095  0.000074  0.000000
  0.000074  -0.000070  0.000000
  0.000000  0.000000  0.000000

  -0.000112  0.000089  0.000000
  0.000089  -0.000077  0.000000
  0.000000  0.000000  0.000000

  -0.000109  0.000096  0.000000
  0.000096  -0.000088  0.000000
  0.000000  0.000000  0.000000

  -0.000104  0.000089  0.000000
  0.000089  -0.000083  0.000000
  0.000000  0.000000  0.000000

  -0.000113  0.000092  0.000000
  0.000092  -0.000080  0.000000
  0.000000  0.000000  0.000000

  -0.000080  0.000054  0.000000
  0.000054  -0.000047  0.000000
  0.000000  0.000000  0.000000

  -0.000059  0.000034  0.000000
  0.000034  -0.000030  0.000000
  0.000000  0.000000  0.000000

  -0.000084  0.000066  0.000000
  0.000066  -0.000059  0.000000
  0.000000  0.000000  0.000000

  -0.000105  0.000075  0.000000
  0.000075  -0.000061  0.000000
  0.000000  0.000000  0.000000

  -0.000049  0.000026  0.000000
  0.000026  -0.000023  0.000000
  0.000000  0.000000  0.000000

  -0.000043  0.000014  0.000000
  0.000014  -0.000018  0.000000
  0.000000  0.000000  0.000000

  -0.000043  0.000013  0.000000
  0.000013  -0.000016  0.000000
  0.000000  0.000000  0.000000

  -0.000039  0.000016  0.000000
  0.000016  -0.000015  0.000000
  0.000000  0.000000  0.000000

  -0.000048  0.000024  0.000000
  0.000024  -0.000021  0.000000
  0.000000  0.000000  0.000000

  -0.000031  0.000003  0.000000
  0.000003  -0.000010  0.000000
  0.000000  0.000000  0.000000

  -0.000027  0.000006  0.000000
  0.000006  -0.000007  0.000000
  0.000000  0.000000  0.000000

  -0.000039  0.000015  0.000000
  0.000015  -0.000013  0.000000
  0.000000  0.000000  0.000000

  -0.000042  0.000012  0.000000
  0.000012  -0.000016  0.000000
  0.000000  0.000000  0.000000

  -0.000049  0.000024  0.000000
  0.000024  -0.000021  0.000000
  0.000000  0.000000  0.000000

  -0.000042  0.000011  0.000000
  0.000011  -0.000015  0.000000
  0.000000  0.000000  0.000000

  -0.000052  0.000021  0.000000
  0.000021  -0.000024  0.000000
  0.000000  0.000000  0.000000

  -0.000053  0.000021  0.000000
  0.000021  -0.000023  0.000000
  0.000000  0.000000  0.000000

  -0.000061  0.000033  0.000000
  0.000033  -0.000029  0.000000
  0.000000  0.000000  0.000000

  -0.000062  0.000031  0.000000
  0.000031  -0.000031  0.000000
  0.000000  0.000000  0.000000

  -0.000072  0.000043  0.000000
  0.000043  -0.000036  0.000000
  0.000000  0.000000  0.000000

  -0.000072  0.000043  0.000000
  0.000043  -0.000036  0.000000
  0.000000  0.000000  0.000000

  -0.000075  0.000041  0.000000
  0.000041  -0.000038  0.000000
  0.000000  0.000000  0.000000

  -0.000081  0.000053  0.000000
  0.000053  -0.000045  0.000000
  0.000000  0.000000  0.000000

  -0.000076  0.000040  0.000000
  0.000040  -0.000037  0.000000
  0.000000  0.000000  0.000000

  -0.000082  0.000053  0.000000
  0.000053  -0.000043  0.000000
  0.000000  0.000000  0.000000

  -0.000085  0.000051  0.000000
  0.000051  -0.000046  0.000000
  0.000000  0.000000  0.000000

  -0.000077  0.000040  0.000000
  0.000040  -0.000036  0.000000
  0.000000  0.000000  0.000000

  -0.000086  0.000050  0.000000
  0.000050  -0.000045  0.000000
  0.000000  0.000000  0.000000

  -0.000064  0.000030  0.000000
  0.000030  -0.000030  0.000000
  0.000000  0.000000  0.000000

  -0.000082  0.000051  0.000000
  0.000051  -0.000042  0.000000
  0.000000  0.000000  0.000000

  -0.000095  0.000064  0.000000
  0.000064  -0.000052  0.000000
  0.000000  0.000000  0.000000

  -0.000097  0.000062  0.000000
  0.000062  -0.000053  0.000000
  0.000000  0.000000  0.000000

  -0.000105  0.000074  0.000000
  0.000074  -0.000060  0.000000
  0.000000  0.000000  0.000000

  -0.000108  0.000078  0.000000
  0.000078  -0.000064  0.000000
  0.000000  0.000000  0.000000

  -0.000110  0.000077  0.000000
  0.000077  -0.000065  0.000000
  0.000000  0.000000  0.000000

  -0.000071  0.000042  0.000000
  0.000042  -0.000035  0.000000
  0.000000  0.000000  0.000000

  -0.000064  0.000029  0.000000
  0.000029  -0.000028  0.000000
  0.000000  0.000000  0.000000

  -0.000058  0.000031  0.000000
  0.000031  -0.000028  0.000000
  0.000000  0.000000  0.000000

  -0.000071  0.000041  0.000000
  0.000041  -0.000033  0.000000
  0.000000  0.000000  0.000000

  -0.000095  0.000063  0.000000
  0.000063  -0.000049  0.000000
  0.000000  0.000000  0.000000

  -0.000094  0.000078  0.000000
  0.000078  -0.000071  0.000000
  0.000000  0.000000  0.000000

  -0.000093  0.000065  0.000000
  0.000065  -0.000053  0.000000
  0.000000  0.000000  0.000000

  -0.000095  0.000063  0.000000
  0.000063  -0.000056  0.000000
  0.000000  0.000000  0.000000

  -0.000071  0.000045  0.000000
  0.000045  -0.000038  0.000000
  0.000000  0.000000  0.000000

  -0.000062  0.000032  0.000000
  0.000032  -0.000032  0.000000
  0.000000  0.000000  0.000000

  -0.000074  0.000042  0.000000
  0.000042  -0.000040  0.000000
  0.000000  0.000000  0.000000

  -0.000075  0.000056  0.000000
  0.000056  -0.000050  0.000000
  0.000000  0.000000  0.000000

  -0.000068  0.000043  0.000000
  0.000043  -0.000045  0.000000
  0.000000  0.000000  0.000000

  -0.000074  0.000056  0.000000
  0.000056  -0.000051  0.000000
  0.000000  0.000000  0.000000

  -0.000066  0.000046  0.000000
  0.000046  -0.000041  0.000000
  0.000000  0.000000  0.000000

  -0.000058  0.000034  0.000000
  0.000034  -0.000036  0.000000
  0.000000  0.000000  0.000000

  -0.000022  -0.000005  0.000000
  -0.000005  -0.000002  0.000000
  0.000000  0.000000  0.000000

  -0.000049  0.000023  0.000000
  0.000023  -0.000020  0.000000
  0.000000  0.000000  0.000000

  -0.000040  0.000010  0.000000
  0.000010  -0.000016  0.000000
  0.000000  0.000000  0.000000

  -0.000053  0.000020  0.000000
  0.000020  -0.000021  0.000000
  0.000000  0.000000  0.000000

  -0.000037  0.000013  0.000000
  0.000013  -0.000013  0.000000
  0.000000  0.000000  0.000000

  -0.000050  0.000022  0.000000
  0.000022  -0.000018  0.000000
  0.000000  0.000000  0.000000

  -0.000061  0.000033  0.000000
  0.000033  -0.000028  0.000000
  0.000000  0.000000  0.000000

  -0.000030  0.000001  0.000000
  0.000001  -0.000008  0.000000
  0.000000  0.000000  0.000000

  -0.000029  0.000001  0.000000
  0.000001  -0.000008  0.000000
  0.000000  0.000000  0.000000

  -0.000040  0.000010  0.000000
  0.000010  -0.000016  0.000000
  0.000000  0.000000  0.000000

  -0.000052  0.000019  0.000000
  0.000019  -0.000021  0.000000
  0.000000  0.000000  0.000000

  -0.000060  0.000031  0.000000
  0.000031  -0.000026  0.000000
  0.000000  0.000000  0.000000

  -0.000053  0.000018  0.000000
  0.000018  -0.000020  0.000000
  0.000000  0.000000  0.000000

  -0.000064  0.000028  0.000000
  0.000028  -0.000028  0.000000
  0.000000  0.000000  0.000000

  -0.000071  0.000040  0.000000
  0.000040  -0.000033  0.000000
  0.000000  0.000000  0.000000

  -0.000064  0.000027  0.000000
  0.000027  -0.000026  0.000000
  0.000000  0.000000  0.000000

  -0.000075  0.000037  0.000000
  0.000037  -0.000035  0.000000
  0.000000  0.000000  0.000000

  -0.000048  0.000022  0.000000
  0.000022  -0.000019  0.000000
  0.000000  0.000000  0.000000

  -0.000040  0.000009  0.000000
  0.000009  -0.000014  0.000000
  0.000000  0.000000  0.000000

  -0.000035  0.000012  0.000000
  0.000012  -0.000013  0.000000
  0.000000  0.000000  0.000000

  -0.000048  0.000020  0.000000
  0.000020  -0.000017  0.000000
  0.000000  0.000000  0.000000

  -0.000058  0.000030  0.000000
  0.000030  -0.000026  0.000000
  0.000000  0.000000  0.000000

  -0.000052  0.000017  0.000000
  0.000017  -0.000020  0.000000
  0.000000  0.000000  0.000000

  -0.000059  0.000029  0.000000
  0.000029  -0.000024  0.000000
  0.000000  0.000000  0.000000

  -0.000052  0.000016  0.000000
  0.000016  -0.000019  0.000000
  0.000000  0.000000  0.000000

  -0.000062  0.000026  0.000000
  0.000026  -0.000027  0.000000
  0.000000  0.000000  0.000000

  -0.000029  0.000000  0.000000
  0.000000  -0.000007  0.000000
  0.000000  0.000000  0.000000

  -0.000025  0.000003  0.000000
  0.000003  -0.000005  0.000000
  0.000000  0.000000  0.000000

  -0.000017  -0.000009  0.000000
  -0.000009  -0.000001  0.000000
  0.000000  0.000000  0.000000

  -0.000015  -0.000009  0.000000
  -0.000009  -0.000002  0.000000
  0.000000  0.000000  0.000000

  -0.000039  0.000008  0.000000
  0.000008  -0.000014  0.000000
  0.000000  0.000000  0.000000

  -0.000058  0.000028  0.000000
  0.000028  -0.000024  0.000000
  0.000000  0.000000  0.000000

  -0.000073  0.000039  0.000000
  0.000039  -0.000031  0.000000
  0.000000  0.000000  0.000000

  -0.000075  0.000036  0.000000
  0.000036  -0.000033  0.000000
  0.000000  0.000000  0.000000

  -0.000084  0.000049  0.000000
  0.000049  -0.000039  0.000000
  0.000000  0.000000  0.000000

  -0.000085  0.000049  0.000000
  0.000049  -0.000039  0.000000
  0.000000  0.000000  0.000000

  -0.000087  0.000047  0.000000
  0.000047  -0.000041  0.000000
  0.000000  0.000000  0.000000

  -0.000097  0.000060  0.000000
  0.000060  -0.000046  0.000000
  0.000000  0.000000  0.000000

  -0.000097  0.000061  0.000000
  0.000061  -0.000046  0.000000
  0.000000  0.000000  0.000000

  -0.000077  0.000035  0.000000
  0.000035  -0.000031  0.000000
  0.000000  0.000000  0.000000

  -0.000089  0.000046  0.000000
  0.000046  -0.000040  0.000000
  0.000000  0.000000  0.000000

  -0.000028  -0.000001  0.000000
  -0.000001  -0.000006  0.000000
  0.000000  0.000000  0.000000

  -0.000047  0.000020  0.000000
  0.000020  -0.000017  0.000000
  0.000000  0.000000  0.000000

  -0.000038  0.000006  0.000000
  0.000006  -0.000013  0.000000
  0.000000  0.000000  0.000000

  -0.000033  0.000010  0.000000
  0.000010  -0.000012  0.000000
  0.000000  0.000000  0.000000

  -0.000046  0.000018  0.000000
  0.000018  -0.000016  0.000000
  0.000000  0.000000  0.000000

  -0.000071  0.000038  0.000000
  0.000038  -0.000030  0.000000
  0.000000  0.000000  0.000000

  -0.000062  0.000024  0.000000
  0.000024  -0.000026  0.000000
  0.000000  0.000000  0.000000

  -0.000073  0.000036  0.000000
  0.000036  -0.000028  0.000000
  0.000000  0.000000  0.000000

  -0.000062  0.000024  0.000000
  0.000024  -0.000025  0.000000
  0.000000  0.000000  0.000000

  -0.000074  0.000034  0.000000
  0.000034  -0.000033  0.000000
  0.000000  0.000000  0.000000

  -0.000084  0.000050  0.000000
  0.000050  -0.000040  0.000000
  0.000000  0.000000  0.000000

  -0.000084  0.000048  0.000000
  0.000048  -0.000043  0.000000
  0.000000  0.000000  0.000000

  -0.000076  0.000037  0.000000
  0.000037  -0.000034  0.000000
  0.000000  0.000000  0.000000

  -0.000097  0.000061  0.000000
  0.000061  -0.000048  0.000000
  0.000000  0.000000  0.000000

  -0.000099  0.000059  0.000000
  0.000059  -0.000049  0.000000
  0.000000  0.000000  0.000000

  -0.000104  0.000071  0.000000
  0.000071  -0.000058  0.000000
  0.000000  0.000000  0.000000

  -0.000107  0.000073  0.000000
  0.000073  -0.000057  0.000000
  0.000000  0.000000  0.000000

  -0.000101  0.000058  0.000000
  0.000058  -0.000048  0.000000
  0.000000  0.000000  0.000000

  -0.000106  0.000070  0.000000
  0.000070  -0.000054  0.000000
  0.000000  0.000000  0.000000

  -0.000110  0.000071  0.000000
  0.000071  -0.000059  0.000000
  0.000000  0.000000  0.000000

  -0.000098  0.000060  0.000000
  0.000060  -0.000052  0.000000
  0.000000  0.000000  0.000000

  -0.000103  0.000057  0.000000
  0.000057  -0.000046  0.000000
  0.000000  0.000000  0.000000

  -0.000109  0.000069  0.000000
  0.000069  -0.000051  0.000000
  0.000000  0.000000  0.000000

  -0.000111  0.000068  0.000000
  0.000068  -0.000053  0.000000
  0.000000  0.000000  0.000000

  -0.000103  0.000055  0.000000
  0.000055  -0.000043  0.000000
  0.000000  0.000000  0.000000

  -0.000113  0.000066  0.000000
  0.000066  -0.000053  0.000000
  0.000000  0.000000  0.000000

  -0.000120  0.000084  0.000000
  0.000084  -0.000065  0.000000
  0.000000  0.000000  0.000000

  -0.000119  0.000085  0.000000
  0.000085  -0.000067  0.000000
  0.000000  0.000000  0.000000

  -0.000112  0.000069  0.000000
  0.000069  -0.000056  0.000000
  0.000000  0.000000  0.000000

  -0.000124  0.000080  0.000000
  0.000080  -0.000057  0.000000
  0.000000  0.000000  0.000000

  -0.000124  0.000078  0.000000
  0.000078  -0.000063  0.000000
  0.000000  0.000000  0.000000

  -0.000118  0.000082  0.000000
  0.000082  -0.000064  0.000000
  0.000000  0.000000  0.000000

  -0.000133  0.000081  0.000000
  0.000081  -0.000056  0.000000
  0.000000  0.000000  0.000000

  -0.000096  0.000058  0.000000
  0.000058  -0.000045  0.000000
  0.000000  0.000000  0.000000

  -0.000089  0.000044  0.000000
  0.000044  -0.000037  0.000000
  0.000000  0.000000  0.000000

  -0.000085  0.000046  0.000000
  0.000046  -0.000037  0.000000
  0.000000  0.000000  0.000000

  -0.000095  0.000056  0.000000
  0.000056  -0.000043  0.000000
  0.000000  0.000000  0.000000

  -0.000091  0.000043  0.000000
  0.000043  -0.000035  0.000000
  0.000000  0.000000  0.000000

  -0.000101  0.000053  0.000000
  0.000053  -0.000043  0.000000
  0.000000  0.000000  0.000000

  -0.000111  0.000068  0.000000
  0.000068  -0.000050  0.000000
  0.000000  0.000000  0.000000

  -0.000114  0.000066  0.000000
  0.000066  -0.000051  0.000000
  0.000000  0.000000  0.000000

  -0.000123  0.000079  0.000000
  0.000079  -0.000058  0.000000
  0.000000  0.000000  0.000000

  -0.000126  0.000080  0.000000
  0.000080  -0.000057  0.000000
  0.000000  0.000000  0.000000

  -0.000110  0.000066  0.000000
  0.000066  -0.000048  0.000000
  0.000000  0.000000  0.000000

  -0.000025  -0.000004  0.000000
  -0.000004  -0.000005  0.000000
  0.000000  0.000000  0.000000

  -0.000050  0.000014  0.000000
  0.000014  -0.000018  0.000000
  0.000000  0.000000  0.000000

  -0.000058  0.000027  0.000000
  0.000027  -0.000023  0.000000
  0.000000  0.000000  0.000000

  -0.000116  0.000063  0.000000
  0.000063  -0.000047  0.000000
  0.000000  0.000000  0.000000

  -0.000123  0.000075  0.000000
  0.000075  -0.000053  0.000000
  0.000000  0.000000  0.000000

  -0.000116  0.000060  0.000000
  0.000060  -0.000045  0.000000
  0.000000  0.000000  0.000000

  -0.000129  0.000072  0.000000
  0.000072  -0.000052  0.000000
  0.000000  0.000000  0.000000

  -0.000026  -0.000002  0.000000
  -0.000002  -0.000006  0.000000
  0.000000  0.000000  0.000000

  -0.000022  0.000001  0.000000
  0.000001  -0.000004  0.000000
  0.000000  0.000000  0.000000

  -0.000037  0.000005  0.000000
  0.000005  -0.000013  0.000000
  0.000000  0.000000  0.000000

  -0.000129  0.000078  0.000000
  0.000078  -0.000057  0.000000
  0.000000  0.000000  0.000000

  -0.000025  0.000004  0.000000
  0.000004  -0.000006  0.000000
  0.000000  0.000000  0.000000

  -0.000018  -0.000008  0.000000
  -0.000008  -0.000001  0.000000
  0.000000  0.000000  0.000000

  -0.000013  -0.000005  0.000000
  -0.000005  0.000001  0.000000
  0.000000  0.000000  0.000000

  -0.000013  -0.000006  0.000000
  -0.000006  0.000002  0.000000
  0.000000  0.000000  0.000000

  -0.000119  0.000073  0.000000
  0.000073  -0.000052  0.000000
  0.000000  0.000000  0.000000

  -0.000058  0.000037  0.000000
  0.000037  -0.000032  0.000000
  0.000000  0.000000  0.000000

  -0.000051  0.000025  0.000000
  0.000025  -0.000027  0.000000
  0.000000  0.000000  0.000000

  -0.000056  0.000037  0.000000
  0.000037  -0.000032  0.000000
  0.000000  0.000000  0.000000

  -0.000049  0.000025  0.000000
  0.000025  -0.000028  0.000000
  0.000000  0.000000  0.000000

  -0.000055  0.000037  0.000000
  0.000037  -0.000034  0.000000
  0.000000  0.000000  0.000000

  -0.000058  0.000034  0.000000
  0.000034  -0.000035  0.000000
  0.000000  0.000000  0.000000

  -0.000048  0.000025  0.000000
  0.000025  -0.000028  0.000000
  0.000000  0.000000  0.000000

  -0.000047  0.000028  0.000000
  0.000028  -0.000024  0.000000
  0.000000  0.000000  0.000000

  -0.000040  0.000016  0.000000
  0.000016  -0.000019  0.000000
  0.000000  0.000000  0.000000

  -0.000054  0.000037  0.000000
  0.000037  -0.000034  0.000000
  0.000000  0.000000  0.000000

  -0.000031  0.000003  0.000000
  0.000003  -0.000009  0.000000
  0.000000  0.000000  0.000000

  -0.000027  0.000006  0.000000
  0.000006  -0.000007  0.000000
  0.000000  0.000000  0.000000

  -0.000020  -0.000006  0.000000
  -0.000006  -0.000001  0.000000
  0.000000  0.000000  0.000000

  -0.000016  -0.000003  0.000000
  -0.000003  0.000000  0.000000
  0.000000  0.000000  0.000000

  -0.000019  -0.000007  0.000000
  -0.000007  -0.000001  0.000000
  0.000000  0.000000  0.000000

  -0.000010  -0.000014  0.000000
  -0.000014  0.000006  0.000000
  0.000000  0.000000  0.000000

  -0.000009  -0.000015  0.000000
  -0.000015  0.000006  0.000000
  0.000000  0.000000  0.000000

  -0.000108  0.000063  0.000000
  0.000063  -0.000046  0.000000
  0.000000  0.000000  0.000000

  -0.000139  0.000091  0.000000
  0.000091  -0.000065  0.000000
  0.000000  0.000000  0.000000

  0.000004  -0.000026  0.000000
  -0.000026  0.000019  0.000000
  0.000000  0.000000  0.000000

  -0.000023  0.000002  0.000000
  0.000002  -0.000004  0.000000
  0.000000  0.000000  0.000000

  -0.000014  -0.000010  0.000000
  -0.000010  -0.000001  0.000000
  0.000000  0.000000  0.000000

  -0.000008  -0.000007  0.000000
  -0.000007  0.000000  0.000000
  0.000000  0.000000  0.000000

  -0.000003  -0.000018  0.000000
  -0.000018  0.000006  0.000000
  0.000000  0.000000  0.000000

  0.000001  -0.000015  0.000000
  -0.000015  0.000007  0.000000
  0.000000  0.000000  0.000000

  0.000006  -0.000026  0.000000
  -0.000026  0.000013  0.000000
  0.000000  0.000000  0.000000

  0.000010  -0.000027  0.000000
  -0.000027  0.000011  0.000000
  0.000000  0.000000  0.000000

  0.000001  -0.000013  0.000000
  -0.000013  0.000007  0.000000
  0.000000  0.000000  0.000000

  0.000006  -0.000025  0.000000
  -0.000025  0.000011  0.000000
  0.000000  0.000000  0.000000

  -0.000001  -0.000013  0.000000
  -0.000013  0.000007  0.000000
  0.000000  0.000000  0.000000

  0.000010  -0.000022  0.000000
  -0.000022  0.000015  0.000000
  0.000000  0.000000  0.000000

  0.000013  -0.000022  0.000000
  -0.000022  0.000013  0.000000
  0.000000  0.000000  0.000000

  0.000014  -0.000023  0.000000
  -0.000023  0.000014  0.000000
  0.000000  0.000000  0.000000

  0.000002  -0.000016  0.000000
  -0.000016  0.000008  0.000000
  0.000000  0.000000  0.000000

  -0.000002  -0.000019  0.000000
  -0.000019  0.000006  0.000000
  0.000000  0.000000  0.000000

  -0.000008  -0.000007  0.000000
  -0.000007  0.000001  0.000000
  0.000000  0.000000  0.000000

  -0.000001  -0.000020  0.000000
  -0.000020  0.000006  0.000000
  0.000000  0.000000  0.000000

  -0.000013  -0.000011  0.000000
  -0.000011  -0.000001  0.000000
  0.000000  0.000000  0.000000

  -0.000019  0.000000  0.000000
  0.000000  -0.000004  0.000000
  0.000000  0.000000  0.000000

  -0.000012  -0.000013  0.000000
  -0.000013  0.000001  0.000000
  0.000000  0.000000  0.000000

  -0.000005  -0.000009  0.000000
  -0.000009  0.000001  0.000000
  0.000000  0.000000  0.000000

  -0.000018  -0.000001  0.000000
  -0.000001  -0.000004  0.000000
  0.000000  0.000000  0.000000

  0.000002  -0.000022  0.000000
  -0.000022  0.000007  0.000000
  0.000000  0.000000  0.000000

  0.000006  -0.000016  0.000000
  -0.000016  0.000006  0.000000
  0.000000  0.000000  0.000000

  0.000010  -0.000018  0.000000
  -0.000018  0.000007  0.000000
  0.000000  0.000000  0.000000

  -0.000003  -0.000011  0.000000
  -0.000011  0.000002  0.000000
  0.000000  0.000000  0.000000

  -0.000006  -0.000017  0.000000
  -0.000017  0.000006  0.000000
  0.000000  0.000000  0.000000

  -0.000014  -0.000004  0.000000
  -0.000004  0.000001  0.000000
  0.000000  0.000000  0.000000

  -0.000007  -0.000016  0.000000
  -0.000016  0.000005  0.000000
  0.000000  0.000000  0.000000

  0.000018  -0.000033  0.000000
  -0.000033  0.000017  0.000000
  0.000000  0.000000  0.000000

  -0.000023  -0.000005  0.000000
  -0.000005  -0.000005  0.000000
  0.000000  0.000000  0.000000

  0.000005  -0.000024  0.000000
  -0.000024  0.000012  0.000000
  0.000000  0.000000  0.000000

  0.000019  -0.000033  0.000000
  -0.000033  0.000018  0.000000
  0.000000  0.000000  0.000000

  0.000023  -0.000030  0.000000
  -0.000030  0.000020  0.000000
  0.000000  0.000000  0.000000

  0.000028  -0.000041  0.000000
  -0.000041  0.000025  0.000000
  0.000000  0.000000  0.000000

  0.000032  -0.000041  0.000000
  -0.000041  0.000023  0.000000
  0.000000  0.000000  0.000000

  0.000022  -0.000029  0.000000
  -0.000029  0.000020  0.000000
  0.000000  0.000000  0.000000

  0.000027  -0.000040  0.000000
  -0.000040  0.000025  0.000000
  0.000000  0.000000  0.000000

  0.000021  -0.000028  0.000000
  -0.000028  0.000020  0.000000
  0.000000  0.000000  0.000000

  0.000031  -0.000036  0.000000
  -0.000036  0.000028  0.000000
  0.000000  0.000000  0.000000

  0.000034  -0.000037  0.000000
  -0.000037  0.000026  0.000000
  0.000000  0.000000  0.000000

  0.000026  -0.000030  0.000000
  -0.000030  0.000020  0.000000
  0.000000  0.000000  0.000000

  0.000033  -0.000042  0.000000
  -0.000042  0.000024  0.000000
  0.000000  0.000000  0.000000

  0.000039  -0.000039  0.000000
  -0.000039  0.000025  0.000000
  0.000000  0.000000  0.000000

  0.000029  -0.000031  0.000000
  -0.000031  0.000019  0.000000
  0.000000  0.000000  0.000000

  0.000025  -0.000039  0.000000
  -0.000039  0.000025  0.000000
  0.000000  0.000000  0.000000

  0.000040  -0.000047  0.000000
  -0.000047  0.000031  0.000000
  0.000000  0.000000  0.000000

  0.000044  -0.000044  0.000000
  -0.000044  0.000032  0.000000
  0.000000  0.000000  0.000000

  0.000049  -0.000055  0.000000
  -0.000055  0.000037  0.000000
  0.000000  0.000000  0.000000

  0.000052  -0.000055  0.000000
  -0.000055  0.000036  0.000000
  0.000000  0.000000  0.000000

  0.000043  -0.000043  0.000000
  -0.000043  0.000032  0.000000
  0.000000  0.000000  0.000000

  0.000055  -0.000051  0.000000
  -0.000051  0.000039  0.000000
  0.000000  0.000000  0.000000

  0.000056  -0.000052  0.000000
  -0.000052  0.000039  0.000000
  0.000000  0.000000  0.000000

  0.000045  -0.000045  0.000000
  -0.000045  0.000033  0.000000
  0.000000  0.000000  0.000000

  0.000036  -0.000037  0.000000
  -0.000037  0.000026  0.000000
  0.000000  0.000000  0.000000

  0.000041  -0.000049  0.000000
  -0.000049  0.000030  0.000000
  0.000000  0.000000  0.000000

  0.000042  -0.000049  0.000000
  -0.000049  0.000030  0.000000
  0.000000  0.000000  0.000000

  0.000050  -0.000045  0.000000
  -0.000045  0.000031  0.000000
  0.000000  0.000000  0.000000

  0.000054  -0.000056  0.000000
  -0.000056  0.000036  0.000000
  0.000000  0.000000  0.000000

  0.000059  -0.000052  0.000000
  -0.000052  0.000037  0.000000
  0.000000  0.000000  0.000000

  0.000065  -0.000063  0.000000
  -0.000063  0.000043  0.000000
  0.000000  0.000000  0.000000

  0.000067  -0.000063  0.000000
  -0.000063  0.000040  0.000000
  0.000000  0.000000  0.000000

  0.000069  -0.000060  0.000000
  -0.000060  0.000044  0.000000
  0.000000  0.000000  0.000000

  0.000056  -0.000057  0.000000
  -0.000057  0.000036  0.000000
  0.000000  0.000000  0.000000

  0.000072  -0.000059  0.000000
  -0.000059  0.000043  0.000000
  0.000000  0.000000  0.000000

  0.000062  -0.000053  0.000000
  -0.000053  0.000038  0.000000
  0.000000  0.000000  0.000000

  0.000070  -0.000064  0.000000
  -0.000064  0.000041  0.000000
  0.000000  0.000000  0.000000

  0.000076  -0.000060  0.000000
  -0.000060  0.000042  0.000000
  0.000000  0.000000  0.000000

  0.000065  -0.000054  0.000000
  -0.000054  0.000038  0.000000
  0.000000  0.000000  0.000000

  0.000081  -0.000071  0.000000
  -0.000071  0.000047  0.000000
  0.000000  0.000000  0.000000

  0.000083  -0.000068  0.000000
  -0.000068  0.000050  0.000000
  0.000000  0.000000  0.000000

  0.000083  -0.000072  0.000000
  -0.000072  0.000047  0.000000
  0.000000  0.000000  0.000000

  0.000073  -0.000065  0.000000
  -0.000065  0.000040  0.000000
  0.000000  0.000000  0.000000

  0.000016  -0.000032  0.000000
  -0.000032  0.000018  0.000000
  0.000000  0.000000  0.000000

  0.000007  -0.000020  0.000000
  -0.000020  0.000015  0.000000
  0.000000  0.000000  0.000000

  0.000004  -0.000024  0.000000
  -0.000024  0.000011  0.000000
  0.000000  0.000000  0.000000

  0.000015  -0.000031  0.000000
  -0.000031  0.000018  0.000000
  0.000000  0.000000  0.000000

  -0.000005  -0.000011  0.000000
  -0.000011  0.000008  0.000000
  0.000000  0.000000  0.000000

  0.000037  -0.000047  0.000000
  -0.000047  0.000031  0.000000
  0.000000  0.000000  0.000000

  0.000030  -0.000035  0.000000
  -0.000035  0.000027  0.000000
  0.000000  0.000000  0.000000

  0.000036  -0.000046  0.000000
  -0.000046  0.000030  0.000000
  0.000000  0.000000  0.000000

  0.000061  -0.000058  0.000000
  -0.000058  0.000034  0.000000
  0.000000  0.000000  0.000000

  0.000028  -0.000035  0.000000
  -0.000035  0.000029  0.000000
  0.000000  0.000000  0.000000

  0.000039  -0.000043  0.000000
  -0.000043  0.000035  0.000000
  0.000000  0.000000  0.000000

  -0.000137  0.000085  0.000000
  0.000085  -0.000061  0.000000
  0.000000  0.000000  0.000000

  -0.000009  -0.000014  0.000000
  -0.000014  0.000002  0.000000
  0.000000  0.000000  0.000000

  -0.000038  0.000015  0.000000
  0.000015  -0.000014  0.000000
  0.000000  0.000000  0.000000

  -0.000064  0.000046  0.000000
  0.000046  -0.000042  0.000000
  0.000000  0.000000  0.000000

  -0.000066  0.000044  0.000000
  0.000044  -0.000045  0.000000
  0.000000  0.000000  0.000000

  -0.000073  0.000056  0.000000
  0.000056  -0.000050  0.000000
  0.000000  0.000000  0.000000

  -0.000073  0.000053  0.000000
  0.000053  -0.000055  0.000000
  0.000000  0.000000  0.000000

  -0.000063  0.000043  0.000000
  0.000043  -0.000047  0.000000
  0.000000  0.000000  0.000000

  -0.000110  0.000072  0.000000
  0.000072  -0.000060  0.000000
  0.000000  0.000000  0.000000

  -0.000116  0.000088  0.000000
  0.000088  -0.000074  0.000000
  0.000000  0.000000  0.000000

  -0.000075  0.000053  0.000000
  0.000053  -0.000054  0.000000
  0.000000  0.000000  0.000000

  -0.000081  0.000065  0.000000
  0.000065  -0.000060  0.000000
  0.000000  0.000000  0.000000

  -0.000083  0.000063  0.000000
  0.000063  -0.000063  0.000000
  0.000000  0.000000  0.000000

  -0.000101  0.000051  0.000000
  0.000051  -0.000039  0.000000
  0.000000  0.000000  0.000000

  -0.000095  0.000053  0.000000
  0.000053  -0.000041  0.000000
  0.000000  0.000000  0.000000

  -0.000083  0.000046  0.000000
  0.000046  -0.000035  0.000000
  0.000000  0.000000  0.000000

  -0.000076  0.000031  0.000000
  0.000031  -0.000029  0.000000
  0.000000  0.000000  0.000000

  -0.000086  0.000039  0.000000
  0.000039  -0.000035  0.000000
  0.000000  0.000000  0.000000

  -0.000070  0.000035  0.000000
  0.000035  -0.000028  0.000000
  0.000000  0.000000  0.000000

  -0.000061  0.000021  0.000000
  0.000021  -0.000024  0.000000
  0.000000  0.000000  0.000000

  -0.000080  0.000043  0.000000
  0.000043  -0.000033  0.000000
  0.000000  0.000000  0.000000

  -0.000054  0.000025  0.000000
  0.000025  -0.000023  0.000000
  0.000000  0.000000  0.000000

  -0.000070  0.000033  0.000000
  0.000033  -0.000025  0.000000
  0.000000  0.000000  0.000000

  -0.000072  0.000029  0.000000
  0.000029  -0.000028  0.000000
  0.000000  0.000000  0.000000

  -0.000088  0.000041  0.000000
  0.000041  -0.000029  0.000000
  0.000000  0.000000  0.000000

  -0.000073  0.000031  0.000000
  0.000031  -0.000029  0.000000
  0.000000  0.000000  0.000000

  -0.000085  0.000048  0.000000
  0.000048  -0.000039  0.000000
  0.000000  0.000000  0.000000

  -0.000051  0.000014  0.000000
  0.000014  -0.000016  0.000000
  0.000000  0.000000  0.000000

  -0.000045  0.000017  0.000000
  0.000017  -0.000016  0.000000
  0.000000  0.000000  0.000000

  -0.000034  0.000004  0.000000
  0.000004  -0.000012  0.000000
  0.000000  0.000000  0.000000

  -0.000030  0.000007  0.000000
  0.000007  -0.000010  0.000000
  0.000000  0.000000  0.000000

  -0.000045  0.000015  0.000000
  0.000015  -0.000014  0.000000
  0.000000  0.000000  0.000000

  -0.000048  0.000012  0.000000
  0.000012  -0.000017  0.000000
  0.000000  0.000000  0.000000

  -0.000056  0.000025  0.000000
  0.000025  -0.000021  0.000000
  0.000000  0.000000  0.000000

  -0.000049  0.000011  0.000000
  0.000011  -0.000015  0.000000
  0.000000  0.000000  0.000000

  -0.000059  0.000021  0.000000
  0.000021  -0.000024  0.000000
  0.000000  0.000000  0.000000

  -0.000070  0.000034  0.000000
  0.000034  -0.000026  0.000000
  0.000000  0.000000  0.000000

  -0.000060  0.000019  0.000000
  0.000019  -0.000021  0.000000
  0.000000  0.000000  0.000000

  -0.000055  0.000023  0.000000
  0.000023  -0.000020  0.000000
  0.000000  0.000000  0.000000

  -0.000069  0.000031  0.000000
  0.000031  -0.000024  0.000000
  0.000000  0.000000  0.000000

  -0.000046  0.000009  0.000000
  0.000009  -0.000014  0.000000
  0.000000  0.000000  0.000000

  -0.000084  0.000043  0.000000
  0.000043  -0.000031  0.000000
  0.000000  0.000000  0.000000

  -0.000040  0.000015  0.000000
  0.000015  -0.000016  0.000000
  0.000000  0.000000  0.000000

  -0.000034  0.000003  0.000000
  0.000003  -0.000011  0.000000
  0.000000  0.000000  0.000000

  -0.000030  0.000006  0.000000
  0.000006  -0.000010  0.000000
  0.000000  0.000000  0.000000

  -0.000021  -0.000006  0.000000
  -0.000006  -0.000004  0.000000
  0.000000  0.000000  0.000000

  -0.000018  -0.000006  0.000000
  -0.000006  -0.000008  0.000000
  0.000000  0.000000  0.000000

  -0.000017  -0.000003  0.000000
  -0.000003  -0.000003  0.000000
  0.000000  0.000000  0.000000

  -0.000059  0.000017  0.000000
  0.000017  -0.000020  0.000000
  0.000000  0.000000  0.000000

  -0.000073  0.000027  0.000000
  0.000027  -0.000027  0.000000
  0.000000  0.000000  0.000000

  -0.000082  0.000040  0.000000
  0.000040  -0.000030  0.000000
  0.000000  0.000000  0.000000

  -0.000015  -0.000002  0.000000
  -0.000002  -0.000003  0.000000
  0.000000  0.000000  0.000000

  -0.000031  0.000005  0.000000
  0.000005  -0.000004  0.000000
  0.000000  0.000000  0.000000

  -0.000092  0.000076  0.000000
  0.000076  -0.000070  0.000000
  0.000000  0.000000  0.000000

  -0.000038  0.000013  0.000000
  0.000013  -0.000015  0.000000
  0.000000  0.000000  0.000000

  -0.000034  0.000001  0.000000
  0.000001  -0.000011  0.000000
  0.000000  0.000000  0.000000

  -0.000034  0.000000  0.000000
  0.000000  -0.000007  0.000000
  0.000000  0.000000  0.000000

  -0.000018  0.000001  0.000000
  0.000001  -0.000013  0.000000
  0.000000  0.000000  0.000000

  -0.000032  0.000009  0.000000
  0.000009  -0.000015  0.000000
  0.000000  0.000000  0.000000

  -0.000028  -0.000004  0.000000
  -0.000004  -0.000006  0.000000
  0.000000  0.000000  0.000000

  -0.000043  0.000005  0.000000
  0.000005  -0.000012  0.000000
  0.000000  0.000000  0.000000

  -0.000090  0.000076  0.000000
  0.000076  -0.000070  0.000000
  0.000000  0.000000  0.000000

  -0.000054  0.000021  0.000000
  0.000021  -0.000019  0.000000
  0.000000  0.000000  0.000000

  -0.000048  0.000028  0.000000
  0.000028  -0.000025  0.000000
  0.000000  0.000000  0.000000

  -0.000042  0.000016  0.000000
  0.000016  -0.000019  0.000000
  0.000000  0.000000  0.000000

  -0.000049  0.000028  0.000000
  0.000028  -0.000024  0.000000
  0.000000  0.000000  0.000000

  0.000011  -0.000025  0.000000
  -0.000025  0.000021  0.000000
  0.000000  0.000000  0.000000

  -0.000070  0.000054  0.000000
  0.000054  -0.000049  0.000000
  0.000000  0.000000  0.000000

  -0.000088  0.000036  0.000000
  0.000036  -0.000031  0.000000
  0.000000  0.000000  0.000000

  0.000013  -0.000033  0.000000
  -0.000033  0.000027  0.000000
  0.000000  0.000000  0.000000

  -0.000036  0.000015  0.000000
  0.000015  -0.000018  0.000000
  0.000000  0.000000  0.000000

  -0.000063  0.000046  0.000000
  0.000046  -0.000042  0.000000
  0.000000  0.000000  0.000000

  -0.000057  0.000034  0.000000
  0.000034  -0.000036  0.000000
  0.000000  0.000000  0.000000

  -0.000060  0.000045  0.000000
  0.000045  -0.000044  0.000000
  0.000000  0.000000  0.000000

  -0.000063  0.000043  0.000000
  0.000043  -0.000046  0.000000
  0.000000  0.000000  0.000000

  -0.000069  0.000055  0.000000
  0.000055  -0.000051  0.000000
  0.000000  0.000000  0.000000

  -0.000057  0.000035  0.000000
  0.000035  -0.000037  0.000000
  0.000000  0.000000  0.000000

  -0.000070  0.000052  0.000000
  0.000052  -0.000054  0.000000
  0.000000  0.000000  0.000000

  -0.000061  0.000043  0.000000
  0.000043  -0.000048  0.000000
  0.000000  0.000000  0.000000

  -0.000074  0.000064  0.000000
  0.000064  -0.000063  0.000000
  0.000000  0.000000  0.000000

  -0.000074  0.000064  0.000000
  0.000064  -0.000064  0.000000
  0.000000  0.000000  0.000000

  -0.000067  0.000054  0.000000
  0.000054  -0.000051  0.000000
  0.000000  0.000000  0.000000

  -0.000060  0.000046  0.000000
  0.000046  -0.000043  0.000000
  0.000000  0.000000  0.000000

  -0.000054  0.000034  0.000000
  0.000034  -0.000037  0.000000
  0.000000  0.000000  0.000000

  -0.000057  0.000044  0.000000
  0.000044  -0.000044  0.000000
  0.000000  0.000000  0.000000

  -0.000053  0.000036  0.000000
  0.000036  -0.000034  0.000000
  0.000000  0.000000  0.000000

  -0.000053  0.000037  0.000000
  0.000037  -0.000035  0.000000
  0.000000  0.000000  0.000000

  -0.000059  0.000042  0.000000
  0.000042  -0.000047  0.000000
  0.000000  0.000000  0.000000

  -0.000065  0.000053  0.000000
  0.000053  -0.000052  0.000000
  0.000000  0.000000  0.000000

  -0.000066  0.000051  0.000000
  0.000051  -0.000055  0.000000
  0.000000  0.000000  0.000000

  -0.000057  0.000042  0.000000
  0.000042  -0.000048  0.000000
  0.000000  0.000000  0.000000

  -0.000053  0.000034  0.000000
  0.000034  -0.000037  0.000000
  0.000000  0.000000  0.000000

  -0.000073  0.000063  0.000000
  0.000063  -0.000062  0.000000
  0.000000  0.000000  0.000000

  -0.000072  0.000061  0.000000
  0.000061  -0.000068  0.000000
  0.000000  0.000000  0.000000

  -0.000070  0.000063  0.000000
  0.000063  -0.000063  0.000000
  0.000000  0.000000  0.000000

  -0.000063  0.000052  0.000000
  0.000052  -0.000051  0.000000
  0.000000  0.000000  0.000000

  -0.000057  0.000044  0.000000
  0.000044  -0.000043  0.000000
  0.000000  0.000000  0.000000

  -0.000051  0.000033  0.000000
  0.000033  -0.000037  0.000000
  0.000000  0.000000  0.000000

  -0.000055  0.000043  0.000000
  0.000043  -0.000043  0.000000
  0.000000  0.000000  0.000000

  -0.000051  0.000035  0.000000
  0.000035  -0.000032  0.000000
  0.000000  0.000000  0.000000

  -0.000055  0.000041  0.000000
  0.000041  -0.000047  0.000000
  0.000000  0.000000  0.000000

  -0.000061  0.000051  0.000000
  0.000051  -0.000052  0.000000
  0.000000  0.000000  0.000000

  -0.000062  0.000049  0.000000
  0.000049  -0.000055  0.000000
  0.000000  0.000000  0.000000

  -0.000054  0.000040  0.000000
  0.000040  -0.000047  0.000000
  0.000000  0.000000  0.000000

  -0.000049  0.000032  0.000000
  0.000032  -0.000036  0.000000
  0.000000  0.000000  0.000000

  -0.000042  0.000024  0.000000
  0.000024  -0.000028  0.000000
  0.000000  0.000000  0.000000

  -0.000044  0.000024  0.000000
  0.000024  -0.000027  0.000000
  0.000000  0.000000  0.000000

  -0.000042  0.000026  0.000000
  0.000026  -0.000024  0.000000
  0.000000  0.000000  0.000000

  -0.000068  0.000061  0.000000
  0.000061  -0.000062  0.000000
  0.000000  0.000000  0.000000

  -0.000067  0.000059  0.000000
  0.000059  -0.000068  0.000000
  0.000000  0.000000  0.000000

  -0.000066  0.000061  0.000000
  0.000061  -0.000063  0.000000
  0.000000  0.000000  0.000000

  -0.000059  0.000050  0.000000
  0.000050  -0.000051  0.000000
  0.000000  0.000000  0.000000

  -0.000054  0.000043  0.000000
  0.000043  -0.000042  0.000000
  0.000000  0.000000  0.000000

  -0.000047  0.000031  0.000000
  0.000031  -0.000036  0.000000
  0.000000  0.000000  0.000000

  -0.000051  0.000041  0.000000
  0.000041  -0.000042  0.000000
  0.000000  0.000000  0.000000

  -0.000047  0.000033  0.000000
  0.000033  -0.000031  0.000000
  0.000000  0.000000  0.000000

  -0.000052  0.000039  0.000000
  0.000039  -0.000046  0.000000
  0.000000  0.000000  0.000000

  -0.000057  0.000049  0.000000
  0.000049  -0.000051  0.000000
  0.000000  0.000000  0.000000

  -0.000057  0.000047  0.000000
  0.000047  -0.000055  0.000000
  0.000000  0.000000  0.000000

  -0.000050  0.000038  0.000000
  0.000038  -0.000046  0.000000
  0.000000  0.000000  0.000000

  -0.000046  0.000031  0.000000
  0.000031  -0.000036  0.000000
  0.000000  0.000000  0.000000

  -0.000041  0.000023  0.000000
  0.000023  -0.000027  0.000000
  0.000000  0.000000  0.000000

  -0.000040  0.000026  0.000000
  0.000026  -0.000023  0.000000
  0.000000  0.000000  0.000000

  -0.000062  0.000058  0.000000
  0.000058  -0.000062  0.000000
  0.000000  0.000000  0.000000

  -0.000050  0.000040  0.000000
  0.000040  -0.000040  0.000000
  0.000000  0.000000  0.000000

  -0.000044  0.000029  0.000000
  0.000029  -0.000035  0.000000
  0.000000  0.000000  0.000000

  -0.000048  0.000039  0.000000
  0.000039  -0.000040  0.000000
  0.000000  0.000000  0.000000

  -0.000044  0.000032  0.000000
  0.000032  -0.000030  0.000000
  0.000000  0.000000  0.000000

  -0.000048  0.000037  0.000000
  0.000037  -0.000044  0.000000
  0.000000  0.000000  0.000000

  -0.000042  0.000028  0.000000
  0.000028  -0.000034  0.000000
  0.000000  0.000000  0.000000

  -0.000037  0.000021  0.000000
  0.000021  -0.000025  0.000000
  0.000000  0.000000  0.000000

  -0.000038  0.000022  0.000000
  0.000022  -0.000027  0.000000
  0.000000  0.000000  0.000000

  -0.000040  0.000023  0.000000
  0.000023  -0.000027  0.000000
  0.000000  0.000000  0.000000

  -0.000045  0.000033  0.000000
  0.000033  -0.000031  0.000000
  0.000000  0.000000  0.000000

  -0.000039  0.000025  0.000000
  0.000025  -0.000023  0.000000
  0.000000  0.000000  0.000000

  -0.000063  0.000058  0.000000
  0.000058  -0.000061  0.000000
  0.000000  0.000000  0.000000

  -0.000062  0.000056  0.000000
  0.000056  -0.000067  0.000000
  0.000000  0.000000  0.000000

  -0.000055  0.000048  0.000000
  0.000048  -0.000050  0.000000
  0.000000  0.000000  0.000000

  -0.000054  0.000046  0.000000
  0.000046  -0.000055  0.000000
  0.000000  0.000000  0.000000

  -0.000059  0.000055  0.000000
  0.000055  -0.000059  0.000000
  0.000000  0.000000  0.000000

  -0.000071  0.000052  0.000000
  0.000052  -0.000053  0.000000
  0.000000  0.000000  0.000000

  -0.000079  0.000064  0.000000
  0.000064  -0.000060  0.000000
  0.000000  0.000000  0.000000

  -0.000078  0.000064  0.000000
  0.000064  -0.000064  0.000000
  0.000000  0.000000  0.000000

  -0.000067  0.000051  0.000000
  0.000051  -0.000055  0.000000
  0.000000  0.000000  0.000000

  -0.000069  0.000068  0.000000
  0.000068  -0.000075  0.000000
  0.000000  0.000000  0.000000

  -0.000077  0.000062  0.000000
  0.000062  -0.000064  0.000000
  0.000000  0.000000  0.000000

  -0.000078  0.000073  0.000000
  0.000073  -0.000073  0.000000
  0.000000  0.000000  0.000000

  -0.000078  0.000062  0.000000
  0.000062  -0.000064  0.000000
  0.000000  0.000000  0.000000

  -0.000082  0.000075  0.000000
  0.000075  -0.000073  0.000000
  0.000000  0.000000  0.000000

  -0.000035  0.000015  0.000000
  0.000015  -0.000017  0.000000
  0.000000  0.000000  0.000000

  -0.000033  0.000017  0.000000
  0.000017  -0.000014  0.000000
  0.000000  0.000000  0.000000

  -0.000028  0.000007  0.000000
  0.000007  -0.000007  0.000000
  0.000000  0.000000  0.000000

  -0.000028  0.000007  0.000000
  0.000007  -0.000008  0.000000
  0.000000  0.000000  0.000000

  0.000006  -0.000020  0.000000
  -0.000020  0.000016  0.000000
  0.000000  0.000000  0.000000

  -0.000074  0.000071  0.000000
  0.000071  -0.000075  0.000000
  0.000000  0.000000  0.000000

  -0.000051  0.000044  0.000000
  0.000044  -0.000055  0.000000
  0.000000  0.000000  0.000000

  -0.000078  0.000071  0.000000
  0.000071  -0.000072  0.000000
  0.000000  0.000000  0.000000

  -0.000078  0.000069  0.000000
  0.000069  -0.000076  0.000000
  0.000000  0.000000  0.000000

  -0.000091  0.000085  0.000000
  0.000085  -0.000085  0.000000
  0.000000  0.000000  0.000000

  -0.000086  0.000088  0.000000
  0.000088  -0.000096  0.000000
  0.000000  0.000000  0.000000

  -0.000083  0.000083  0.000000
  0.000083  -0.000091  0.000000
  0.000000  0.000000  0.000000

  -0.000091  0.000087  0.000000
  0.000087  -0.000088  0.000000
  0.000000  0.000000  0.000000

  -0.000036  0.000015  0.000000
  0.000015  -0.000017  0.000000
  0.000000  0.000000  0.000000

  -0.000006  -0.000017  0.000000
  -0.000017  0.000017  0.000000
  0.000000  0.000000  0.000000

  0.000002  -0.000017  0.000000
  -0.000017  0.000014  0.000000
  0.000000  0.000000  0.000000

  0.000009  -0.000028  0.000000
  -0.000028  0.000017  0.000000
  0.000000  0.000000  0.000000

  0.000013  -0.000025  0.000000
  -0.000025  0.000020  0.000000
  0.000000  0.000000  0.000000

  0.000007  -0.000018  0.000000
  -0.000018  0.000014  0.000000
  0.000000  0.000000  0.000000

  0.000010  -0.000031  0.000000
  -0.000031  0.000019  0.000000
  0.000000  0.000000  0.000000

  0.000019  -0.000036  0.000000
  -0.000036  0.000025  0.000000
  0.000000  0.000000  0.000000

  0.000023  -0.000033  0.000000
  -0.000033  0.000027  0.000000
  0.000000  0.000000  0.000000

  0.000028  -0.000043  0.000000
  -0.000043  0.000032  0.000000
  0.000000  0.000000  0.000000

  0.000030  -0.000044  0.000000
  -0.000044  0.000031  0.000000
  0.000000  0.000000  0.000000

  0.000021  -0.000037  0.000000
  -0.000037  0.000025  0.000000
  0.000000  0.000000  0.000000

  -0.000126  0.000082  0.000000
  0.000082  -0.000063  0.000000
  0.000000  0.000000  0.000000

  -0.000092  0.000038  0.000000
  0.000038  -0.000032  0.000000
  0.000000  0.000000  0.000000

  -0.000007  -0.000017  0.000000
  -0.000017  0.000014  0.000000
  0.000000  0.000000  0.000000

  -0.000012  -0.000006  0.000000
  -0.000006  0.000009  0.000000
  0.000000  0.000000  0.000000

  -0.000037  0.000015  0.000000
  0.000015  -0.000019  0.000000
  0.000000  0.000000  0.000000

  -0.000043  0.000026  0.000000
  0.000026  -0.000023  0.000000
  0.000000  0.000000  0.000000

  -0.000045  0.000024  0.000000
  0.000024  -0.000026  0.000000
  0.000000  0.000000  0.000000

  -0.000057  0.000053  0.000000
  0.000053  -0.000066  0.000000
  0.000000  0.000000  0.000000

  -0.000013  -0.000009  0.000000
  -0.000009  0.000008  0.000000
  0.000000  0.000000  0.000000

  -0.000019  0.000001  0.000000
  0.000001  0.000005  0.000000
  0.000000  0.000000  0.000000

  -0.000019  -0.000002  0.000000
  -0.000002  0.000000  0.000000
  0.000000  0.000000  0.000000

  -0.000013  -0.000009  0.000000
  -0.000009  0.000009  0.000000
  0.000000  0.000000  0.000000

  -0.000019  0.000000  0.000000
  0.000000  0.000007  0.000000
  0.000000  0.000000  0.000000

  -0.000012  -0.000007  0.000000
  -0.000007  0.000014  0.000000
  0.000000  0.000000  0.000000

  -0.000006  -0.000017  0.000000
  -0.000017  0.000018  0.000000
  0.000000  0.000000  0.000000

  -0.000011  -0.000007  0.000000
  -0.000007  0.000014  0.000000
  0.000000  0.000000  0.000000

  -0.000005  -0.000014  0.000000
  -0.000014  0.000022  0.000000
  0.000000  0.000000  0.000000

  -0.000012  -0.000010  0.000000
  -0.000010  0.000011  0.000000
  0.000000  0.000000  0.000000

  -0.000018  -0.000000  0.000000
  -0.000000  0.000007  0.000000
  0.000000  0.000000  0.000000

  -0.000018  -0.000002  0.000000
  -0.000002  0.000002  0.000000
  0.000000  0.000000  0.000000

  -0.000013  -0.000010  0.000000
  -0.000010  0.000011  0.000000
  0.000000  0.000000  0.000000

  -0.000005  -0.000018  0.000000
  -0.000018  0.000019  0.000000
  0.000000  0.000000  0.000000

  0.000002  -0.000024  0.000000
  -0.000024  0.000026  0.000000
  0.000000  0.000000  0.000000

  0.000002  -0.000024  0.000000
  -0.000024  0.000025  0.000000
  0.000000  0.000000  0.000000

  -0.000031  0.000008  0.000000
  0.000008  -0.000011  0.000000
  0.000000  0.000000  0.000000

  0.000012  -0.000032  0.000000
  -0.000032  0.000027  0.000000
  0.000000  0.000000  0.000000

  0.000016  -0.000029  0.000000
  -0.000029  0.000029  0.000000
  0.000000  0.000000  0.000000

  0.000022  -0.000040  0.000000
  -0.000040  0.000033  0.000000
  0.000000  0.000000  0.000000

  0.000017  -0.000030  0.000000
  -0.000030  0.000029  0.000000
  0.000000  0.000000  0.000000

  0.000023  -0.000041  0.000000
  -0.000041  0.000033  0.000000
  0.000000  0.000000  0.000000

  0.000027  -0.000037  0.000000
  -0.000037  0.000035  0.000000
  0.000000  0.000000  0.000000

  0.000018  -0.000030  0.000000
  -0.000030  0.000029  0.000000
  0.000000  0.000000  0.000000

  0.000033  -0.000048  0.000000
  -0.000048  0.000039  0.000000
  0.000000  0.000000  0.000000

  0.000038  -0.000045  0.000000
  -0.000045  0.000042  0.000000
  0.000000  0.000000  0.000000

  0.000028  -0.000038  0.000000
  -0.000038  0.000035  0.000000
  0.000000  0.000000  0.000000

  0.000044  -0.000056  0.000000
  -0.000056  0.000046  0.000000
  0.000000  0.000000  0.000000

  0.000025  -0.000041  0.000000
  -0.000041  0.000032  0.000000
  0.000000  0.000000  0.000000

  0.000015  -0.000033  0.000000
  -0.000033  0.000025  0.000000
  0.000000  0.000000  0.000000

  0.000049  -0.000052  0.000000
  -0.000052  0.000048  0.000000
  0.000000  0.000000  0.000000

  0.000039  -0.000045  0.000000
  -0.000045  0.000041  0.000000
  0.000000  0.000000  0.000000

  0.000019  -0.000031  0.000000
  -0.000031  0.000028  0.000000
  0.000000  0.000000  0.000000

  0.000035  -0.000049  0.000000
  -0.000049  0.000038  0.000000
  0.000000  0.000000  0.000000

  -0.000072  0.000070  0.000000
  0.000070  -0.000073  0.000000
  0.000000  0.000000  0.000000

  -0.000066  0.000059  0.000000
  0.000059  -0.000067  0.000000
  0.000000  0.000000  0.000000

  -0.000070  0.000069  0.000000
  0.000069  -0.000079  0.000000
  0.000000  0.000000  0.000000

  0.000019  -0.000035  0.000000
  -0.000035  0.000041  0.000000
  0.000000  0.000000  0.000000

  0.000025  -0.000045  0.000000
  -0.000045  0.000044  0.000000
  0.000000  0.000000  0.000000

  -0.000029  0.000007  0.000000
  0.000007  -0.000009  0.000000
  0.000000  0.000000  0.000000

  -0.000035  0.000018  0.000000
  0.000018  -0.000014  0.000000
  0.000000  0.000000  0.000000

  -0.000036  0.000015  0.000000
  0.000015  -0.000017  0.000000
  0.000000  0.000000  0.000000

  -0.000007  -0.000009  0.000000
  -0.000009  0.000007  0.000000
  0.000000  0.000000  0.000000

  -0.000001  -0.000022  0.000000
  -0.000022  0.000012  0.000000
  0.000000  0.000000  0.000000

  0.000018  -0.000028  0.000000
  -0.000028  0.000021  0.000000
  0.000000  0.000000  0.000000

  0.000024  -0.000039  0.000000
  -0.000039  0.000025  0.000000
  0.000000  0.000000  0.000000

  0.000017  -0.000027  0.000000
  -0.000027  0.000021  0.000000
  0.000000  0.000000  0.000000

  0.000031  -0.000047  0.000000
  -0.000047  0.000040  0.000000
  0.000000  0.000000  0.000000

  0.000025  -0.000037  0.000000
  -0.000037  0.000037  0.000000
  0.000000  0.000000  0.000000

  0.000024  -0.000036  0.000000
  -0.000036  0.000037  0.000000
  0.000000  0.000000  0.000000

  0.000004  -0.000025  0.000000
  -0.000025  0.000019  0.000000
  0.000000  0.000000  0.000000

  0.000007  -0.000023  0.000000
  -0.000023  0.000022  0.000000
  0.000000  0.000000  0.000000

  -0.000001  -0.000015  0.000000
  -0.000015  0.000014  0.000000
  0.000000  0.000000  0.000000

  -0.000119  0.000084  0.000000
  0.000084  -0.000069  0.000000
  0.000000  0.000000  0.000000

  -0.000135  0.000096  0.000000
  0.000096  -0.000070  0.000000
  0.000000  0.000000  0.000000

  -0.000072  0.000027  0.000000
  0.000027  -0.000028  0.000000
  0.000000  0.000000  0.000000

  0.000055  -0.000058  0.000000
  -0.000058  0.000055  0.000000
  0.000000  0.000000  0.000000

  -0.000015  0.000001  0.000000
  0.000001  -0.000009  0.000000
  0.000000  0.000000  0.000000

  0.000052  -0.000062  0.000000
  -0.000062  0.000052  0.000000
  0.000000  0.000000  0.000000

  0.000046  -0.000051  0.000000
  -0.000051  0.000048  0.000000
  0.000000  0.000000  0.000000

  0.000057  -0.000058  0.000000
  -0.000058  0.000055  0.000000
  0.000000  0.000000  0.000000

  0.000050  -0.000061  0.000000
  -0.000061  0.000053  0.000000
  0.000000  0.000000  0.000000

  0.000063  -0.000069  0.000000
  -0.000069  0.000058  0.000000
  0.000000  0.000000  0.000000

  0.000058  -0.000059  0.000000
  -0.000059  0.000054  0.000000
  0.000000  0.000000  0.000000

  0.000061  -0.000068  0.000000
  -0.000068  0.000059  0.000000
  0.000000  0.000000  0.000000

  0.000065  -0.000069  0.000000
  -0.000069  0.000056  0.000000
  0.000000  0.000000  0.000000

  0.000054  -0.000063  0.000000
  -0.000063  0.000051  0.000000
  0.000000  0.000000  0.000000

  0.000050  -0.000052  0.000000
  -0.000052  0.000047  0.000000
  0.000000  0.000000  0.000000

  0.000056  -0.000063  0.000000
  -0.000063  0.000051  0.000000
  0.000000  0.000000  0.000000

  0.000046  -0.000056  0.000000
  -0.000056  0.000045  0.000000
  0.000000  0.000000  0.000000

  0.000041  -0.000046  0.000000
  -0.000046  0.000040  0.000000
  0.000000  0.000000  0.000000

  0.000047  -0.000057  0.000000
  -0.000057  0.000044  0.000000
  0.000000  0.000000  0.000000

  0.000037  -0.000049  0.000000
  -0.000049  0.000037  0.000000
  0.000000  0.000000  0.000000

  0.000032  -0.000039  0.000000
  -0.000039  0.000035  0.000000
  0.000000  0.000000  0.000000

  0.000038  -0.000050  0.000000
  -0.000050  0.000038  0.000000
  0.000000  0.000000  0.000000

  0.000031  -0.000039  0.000000
  -0.000039  0.000034  0.000000
  0.000000  0.000000  0.000000

  0.000044  -0.000047  0.000000
  -0.000047  0.000040  0.000000
  0.000000  0.000000  0.000000

  0.000034  -0.000040  0.000000
  -0.000040  0.000034  0.000000
  0.000000  0.000000  0.000000

  0.000026  -0.000042  0.000000
  -0.000042  0.000033  0.000000
  0.000000  0.000000  0.000000

  0.000050  -0.000058  0.000000
  -0.000058  0.000044  0.000000
  0.000000  0.000000  0.000000

  0.000041  -0.000051  0.000000
  -0.000051  0.000038  0.000000
  0.000000  0.000000  0.000000

  0.000056  -0.000054  0.000000
  -0.000054  0.000045  0.000000
  0.000000  0.000000  0.000000

  0.000046  -0.000048  0.000000
  -0.000048  0.000040  0.000000
  0.000000  0.000000  0.000000

  0.000052  -0.000059  0.000000
  -0.000059  0.000044  0.000000
  0.000000  0.000000  0.000000

  0.000058  -0.000055  0.000000
  -0.000055  0.000045  0.000000
  0.000000  0.000000  0.000000

  0.000052  -0.000048  0.000000
  -0.000048  0.000039  0.000000
  0.000000  0.000000  0.000000

  0.000061  -0.000059  0.000000
  -0.000059  0.000053  0.000000
  0.000000  0.000000  0.000000

  0.000068  -0.000070  0.000000
  -0.000070  0.000055  0.000000
  0.000000  0.000000  0.000000

  0.000073  -0.000066  0.000000
  -0.000066  0.000058  0.000000
  0.000000  0.000000  0.000000

  0.000064  -0.000061  0.000000
  -0.000061  0.000052  0.000000
  0.000000  0.000000  0.000000

  0.000070  -0.000071  0.000000
  -0.000071  0.000055  0.000000
  0.000000  0.000000  0.000000

  0.000058  -0.000064  0.000000
  -0.000064  0.000051  0.000000
  0.000000  0.000000  0.000000

  0.000070  -0.000069  0.000000
  -0.000069  0.000061  0.000000
  0.000000  0.000000  0.000000

  0.000085  -0.000072  0.000000
  -0.000072  0.000056  0.000000
  0.000000  0.000000  0.000000

  0.000067  -0.000061  0.000000
  -0.000061  0.000052  0.000000
  0.000000  0.000000  0.000000

  0.000052  -0.000053  0.000000
  -0.000053  0.000046  0.000000
  0.000000  0.000000  0.000000

  0.000082  -0.000074  0.000000
  -0.000074  0.000063  0.000000
  0.000000  0.000000  0.000000

  0.000070  -0.000071  0.000000
  -0.000071  0.000058  0.000000
  0.000000  0.000000  0.000000

  0.000061  -0.000065  0.000000
  -0.000065  0.000050  0.000000
  0.000000  0.000000  0.000000

  0.000040  -0.000041  0.000000
  -0.000041  0.000033  0.000000
  0.000000  0.000000  0.000000

  0.000076  -0.000076  0.000000
  -0.000076  0.000063  0.000000
  0.000000  0.000000  0.000000

  0.000080  -0.000073  0.000000
  -0.000073  0.000066  0.000000
  0.000000  0.000000  0.000000

  0.000091  -0.000084  0.000000
  -0.000084  0.000066  0.000000
  0.000000  0.000000  0.000000

  0.000080  -0.000077  0.000000
  -0.000077  0.000058  0.000000
  0.000000  0.000000  0.000000

  0.000070  -0.000065  0.000000
  -0.000065  0.000059  0.000000
  0.000000  0.000000  0.000000

  0.000074  -0.000075  0.000000
  -0.000075  0.000063  0.000000
  0.000000  0.000000  0.000000

  0.000078  -0.000072  0.000000
  -0.000072  0.000066  0.000000
  0.000000  0.000000  0.000000

  0.000065  -0.000067  0.000000
  -0.000067  0.000050  0.000000
  0.000000  0.000000  0.000000

  0.000042  -0.000054  0.000000
  -0.000054  0.000037  0.000000
  0.000000  0.000000  0.000000

  -0.000029  0.000011  0.000000
  0.000011  -0.000007  0.000000
  0.000000  0.000000  0.000000

  -0.000049  0.000035  0.000000
  0.000035  -0.000033  0.000000
  0.000000  0.000000  0.000000

  0.000042  -0.000054  0.000000
  -0.000054  0.000066  0.000000
  0.000000  0.000000  0.000000

  0.000012  -0.000029  0.000000
  -0.000029  0.000013  0.000000
  0.000000  0.000000  0.000000

  0.000009  -0.000031  0.000000
  -0.000031  0.000033  0.000000
  0.000000  0.000000  0.000000

  0.000005  -0.000021  0.000000
  -0.000021  0.000026  0.000000
  0.000000  0.000000  0.000000

  0.000001  -0.000024  0.000000
  -0.000024  0.000024  0.000000
  0.000000  0.000000  0.000000

  -0.000005  -0.000014  0.000000
  -0.000014  0.000021  0.000000
  0.000000  0.000000  0.000000

  -0.000023  -0.000001  0.000000
  -0.000001  -0.000003  0.000000
  0.000000  0.000000  0.000000

  0.000009  -0.000021  0.000000
  -0.000021  0.000015  0.000000
  0.000000  0.000000  0.000000

  0.000018  -0.000037  0.000000
  -0.000037  0.000037  0.000000
  0.000000  0.000000  0.000000

  0.000049  -0.000067  0.000000
  -0.000067  0.000073  0.000000
  0.000000  0.000000  0.000000

  0.000082  -0.000069  0.000000
  -0.000069  0.000046  0.000000
  0.000000  0.000000  0.000000

  0.000082  -0.000069  0.000000
  -0.000069  0.000052  0.000000
  0.000000  0.000000  0.000000

  0.000092  -0.000079  0.000000
  -0.000079  0.000055  0.000000
  0.000000  0.000000  0.000000

  0.000096  -0.000075  0.000000
  -0.000075  0.000058  0.000000
  0.000000  0.000000  0.000000

  -0.000004  -0.000014  0.000000
  -0.000014  0.000016  0.000000
  0.000000  0.000000  0.000000

  0.000003  -0.000025  0.000000
  -0.000025  0.000019  0.000000
  0.000000  0.000000  0.000000

  0.000010  -0.000024  0.000000
  -0.000024  0.000021  0.000000
  0.000000  0.000000  0.000000

  0.000017  -0.000035  0.000000
  -0.000035  0.000025  0.000000
  0.000000  0.000000  0.000000

  0.000016  -0.000034  0.000000
  -0.000034  0.000024  0.000000
  0.000000  0.000000  0.000000

  0.000022  -0.000032  0.000000
  -0.000032  0.000027  0.000000
  0.000000  0.000000  0.000000

  0.000009  -0.000023  0.000000
  -0.000023  0.000021  0.000000
  0.000000  0.000000  0.000000

  0.000010  -0.000032  0.000000
  -0.000032  0.000035  0.000000
  0.000000  0.000000  0.000000

  0.000005  -0.000021  0.000000
  -0.000021  0.000027  0.000000
  0.000000  0.000000  0.000000

  -0.000117  0.000088  0.000000
  0.000088  -0.000076  0.000000
  0.000000  0.000000  0.000000

  -0.000129  0.000100  0.000000
  0.000100  -0.000079  0.000000
  0.000000  0.000000  0.000000

  -0.000123  0.000100  0.000000
  0.000100  -0.000084  0.000000
  0.000000  0.000000  0.000000

  0.000011  -0.000027  0.000000
  -0.000027  0.000012  0.000000
  0.000000  0.000000  0.000000

  0.000015  -0.000024  0.000000
  -0.000024  0.000014  0.000000
  0.000000  0.000000  0.000000

  0.000027  -0.000035  0.000000
  -0.000035  0.000015  0.000000
  0.000000  0.000000  0.000000

  0.000028  -0.000033  0.000000
  -0.000033  0.000022  0.000000
  0.000000  0.000000  0.000000

  0.000018  -0.000025  0.000000
  -0.000025  0.000015  0.000000
  0.000000  0.000000  0.000000

  0.000027  -0.000037  0.000000
  -0.000037  0.000016  0.000000
  0.000000  0.000000  0.000000

  0.000033  -0.000033  0.000000
  -0.000033  0.000018  0.000000
  0.000000  0.000000  0.000000

  0.000019  -0.000026  0.000000
  -0.000026  0.000015  0.000000
  0.000000  0.000000  0.000000

  0.000038  -0.000043  0.000000
  -0.000043  0.000023  0.000000
  0.000000  0.000000  0.000000

  0.000042  -0.000040  0.000000
  -0.000040  0.000025  0.000000
  0.000000  0.000000  0.000000

  0.000047  -0.000052  0.000000
  -0.000052  0.000030  0.000000
  0.000000  0.000000  0.000000

  0.000053  -0.000050  0.000000
  -0.000050  0.000026  0.000000
  0.000000  0.000000  0.000000

  0.000040  -0.000045  0.000000
  -0.000045  0.000023  0.000000
  0.000000  0.000000  0.000000

  0.000016  -0.000030  0.000000
  -0.000030  0.000011  0.000000
  0.000000  0.000000  0.000000

  0.000010  -0.000018  0.000000
  -0.000018  0.000008  0.000000
  0.000000  0.000000  0.000000

  0.000016  -0.000030  0.000000
  -0.000030  0.000012  0.000000
  0.000000  0.000000  0.000000

  0.000005  -0.000023  0.000000
  -0.000023  0.000006  0.000000
  0.000000  0.000000  0.000000

  -0.000001  -0.000011  0.000000
  -0.000011  0.000002  0.000000
  0.000000  0.000000  0.000000

  0.000045  -0.000041  0.000000
  -0.000041  0.000026  0.000000
  0.000000  0.000000  0.000000

  0.000055  -0.000052  0.000000
  -0.000052  0.000027  0.000000
  0.000000  0.000000  0.000000

  0.000060  -0.000048  0.000000
  -0.000048  0.000029  0.000000
  0.000000  0.000000  0.000000

  0.000047  -0.000042  0.000000
  -0.000042  0.000026  0.000000
  0.000000  0.000000  0.000000

  0.000025  -0.000027  0.000000
  -0.000027  0.000012  0.000000
  0.000000  0.000000  0.000000

  0.000013  -0.000019  0.000000
  -0.000019  0.000007  0.000000
  0.000000  0.000000  0.000000

  0.000063  -0.000058  0.000000
  -0.000058  0.000034  0.000000
  0.000000  0.000000  0.000000

  0.000058  -0.000053  0.000000
  -0.000053  0.000026  0.000000
  0.000000  0.000000  0.000000

  0.000029  -0.000037  0.000000
  -0.000037  0.000017  0.000000
  0.000000  0.000000  0.000000

  0.000034  -0.000034  0.000000
  -0.000034  0.000019  0.000000
  0.000000  0.000000  0.000000

  0.000045  -0.000045  0.000000
  -0.000045  0.000020  0.000000
  0.000000  0.000000  0.000000

  0.000034  -0.000035  0.000000
  -0.000035  0.000021  0.000000
  0.000000  0.000000  0.000000

  0.000056  -0.000047  0.000000
  -0.000047  0.000030  0.000000
  0.000000  0.000000  0.000000

  0.000061  -0.000059  0.000000
  -0.000059  0.000034  0.000000
  0.000000  0.000000  0.000000

  0.000068  -0.000060  0.000000
  -0.000060  0.000033  0.000000
  0.000000  0.000000  0.000000

  0.000046  -0.000044  0.000000
  -0.000044  0.000019  0.000000
  0.000000  0.000000  0.000000

  0.000031  -0.000038  0.000000
  -0.000038  0.000016  0.000000
  0.000000  0.000000  0.000000

  0.000024  -0.000027  0.000000
  -0.000027  0.000013  0.000000
  0.000000  0.000000  0.000000

  0.000031  -0.000038  0.000000
  -0.000038  0.000016  0.000000
  0.000000  0.000000  0.000000

  0.000020  -0.000031  0.000000
  -0.000031  0.000011  0.000000
  0.000000  0.000000  0.000000

  0.000015  -0.000019  0.000000
  -0.000019  0.000007  0.000000
  0.000000  0.000000  0.000000

  0.000036  -0.000034  0.000000
  -0.000034  0.000019  0.000000
  0.000000  0.000000  0.000000

  0.000046  -0.000046  0.000000
  -0.000046  0.000021  0.000000
  0.000000  0.000000  0.000000

  0.000020  -0.000032  0.000000
  -0.000032  0.000013  0.000000
  0.000000  0.000000  0.000000

  0.000010  -0.000024  0.000000
  -0.000024  0.000006  0.000000
  0.000000  0.000000  0.000000

  0.000052  -0.000042  0.000000
  -0.000042  0.000022  0.000000
  0.000000  0.000000  0.000000

  0.000033  -0.000037  0.000000
  -0.000037  0.000020  0.000000
  0.000000  0.000000  0.000000

  0.000034  -0.000029  0.000000
  -0.000029  0.000012  0.000000
  0.000000  0.000000  0.000000

  0.000058  -0.000052  0.000000
  -0.000052  0.000027  0.000000
  0.000000  0.000000  0.000000

  0.000063  -0.000048  0.000000
  -0.000048  0.000028  0.000000
  0.000000  0.000000  0.000000

  0.000071  -0.000060  0.000000
  -0.000060  0.000032  0.000000
  0.000000  0.000000  0.000000

  0.000074  -0.000058  0.000000
  -0.000058  0.000028  0.000000
  0.000000  0.000000  0.000000

  0.000061  -0.000053  0.000000
  -0.000053  0.000025  0.000000
  0.000000  0.000000  0.000000

  0.000019  -0.000021  0.000000
  -0.000021  0.000007  0.000000
  0.000000  0.000000  0.000000

  -0.000003  -0.000011  0.000000
  -0.000011  0.000003  0.000000
  0.000000  0.000000  0.000000

  -0.000001  -0.000012  0.000000
  -0.000012  0.000002  0.000000
  0.000000  0.000000  0.000000

  -0.000009  -0.000016  0.000000
  -0.000016  0.000004  0.000000
  0.000000  0.000000  0.000000

  0.000005  -0.000024  0.000000
  -0.000024  0.000008  0.000000
  0.000000  0.000000  0.000000

  -0.000001  -0.000011  0.000000
  -0.000011  -0.000007  0.000000
  0.000000  0.000000  0.000000

  -0.000021  -0.000008  0.000000
  -0.000008  0.000001  0.000000
  0.000000  0.000000  0.000000

  0.000076  -0.000055  0.000000
  -0.000055  0.000033  0.000000
  0.000000  0.000000  0.000000

  0.000066  -0.000049  0.000000
  -0.000049  0.000029  0.000000
  0.000000  0.000000  0.000000

  0.000076  -0.000061  0.000000
  -0.000061  0.000030  0.000000
  0.000000  0.000000  0.000000

  0.000083  -0.000057  0.000000
  -0.000057  0.000031  0.000000
  0.000000  0.000000  0.000000

  0.000067  -0.000050  0.000000
  -0.000050  0.000030  0.000000
  0.000000  0.000000  0.000000

  0.000083  -0.000066  0.000000
  -0.000066  0.000039  0.000000
  0.000000  0.000000  0.000000

  0.000097  -0.000068  0.000000
  -0.000068  0.000044  0.000000
  0.000000  0.000000  0.000000

  0.000093  -0.000070  0.000000
  -0.000070  0.000036  0.000000
  0.000000  0.000000  0.000000

  0.000078  -0.000060  0.000000
  -0.000060  0.000027  0.000000
  0.000000  0.000000  0.000000

  0.000066  -0.000053  0.000000
  -0.000053  0.000023  0.000000
  0.000000  0.000000  0.000000

  0.000047  -0.000041  0.000000
  -0.000041  0.000025  0.000000
  0.000000  0.000000  0.000000

  0.000031  -0.000036  0.000000
  -0.000036  0.000014  0.000000
  0.000000  0.000000  0.000000

  0.000085  -0.000066  0.000000
  -0.000066  0.000035  0.000000
  0.000000  0.000000  0.000000

  0.000070  -0.000050  0.000000
  -0.000050  0.000026  0.000000
  0.000000  0.000000  0.000000

  0.000071  -0.000054  0.000000
  -0.000054  0.000034  0.000000
  0.000000  0.000000  0.000000

  0.000097  -0.000065  0.000000
  -0.000065  0.000039  0.000000
  0.000000  0.000000  0.000000

  0.000082  -0.000055  0.000000
  -0.000055  0.000032  0.000000
  0.000000  0.000000  0.000000

  0.000052  -0.000042  0.000000
  -0.000042  0.000023  0.000000
  0.000000  0.000000  0.000000

  0.000049  -0.000045  0.000000
  -0.000045  0.000019  0.000000
  0.000000  0.000000  0.000000

  0.000062  -0.000048  0.000000
  -0.000048  0.000029  0.000000
  0.000000  0.000000  0.000000

  0.000008  -0.000026  0.000000
  -0.000026  0.000008  0.000000
  0.000000  0.000000  0.000000

  0.000052  -0.000042  0.000000
  -0.000042  0.000023  0.000000
  0.000000  0.000000  0.000000

  0.000074  -0.000055  0.000000
  -0.000055  0.000035  0.000000
  0.000000  0.000000  0.000000

  0.000037  -0.000044  0.000000
  -0.000044  0.000022  0.000000
  0.000000  0.000000  0.000000

  -0.000026  0.000005  0.000000
  0.000005  -0.000006  0.000000
  0.000000  0.000000  0.000000

  -0.000053  0.000046  0.000000
  0.000046  -0.000049  0.000000
  0.000000  0.000000  0.000000

  -0.000046  0.000035  0.000000
  0.000035  -0.000043  0.000000
  0.000000  0.000000  0.000000

  -0.000050  0.000045  0.000000
  0.000045  -0.000048  0.000000
  0.000000  0.000000  0.000000

  -0.000046  0.000038  0.000000
  0.000038  -0.000038  0.000000
  0.000000  0.000000  0.000000

  -0.000040  0.000027  0.000000
  0.000027  -0.000033  0.000000
  0.000000  0.000000  0.000000

  -0.000044  0.000036  0.000000
  0.000036  -0.000037  0.000000
  0.000000  0.000000  0.000000

  -0.000041  0.000029  0.000000
  0.000029  -0.000028  0.000000
  0.000000  0.000000  0.000000

  -0.000050  0.000042  0.000000
  0.000042  -0.000052  0.000000
  0.000000  0.000000  0.000000

  -0.000044  0.000034  0.000000
  0.000034  -0.000042  0.000000
  0.000000  0.000000  0.000000

  -0.000048  0.000044  0.000000
  0.000044  -0.000047  0.000000
  0.000000  0.000000  0.000000

  -0.000048  0.000041  0.000000
  0.000041  -0.000051  0.000000
  0.000000  0.000000  0.000000

  -0.000042  0.000033  0.000000
  0.000033  -0.000041  0.000000
  0.000000  0.000000  0.000000

  -0.000034  0.000019  0.000000
  0.000019  -0.000023  0.000000
  0.000000  0.000000  0.000000

  -0.000039  0.000026  0.000000
  0.000026  -0.000031  0.000000
  0.000000  0.000000  0.000000

  -0.000036  0.000020  0.000000
  0.000020  -0.000024  0.000000
  0.000000  0.000000  0.000000

  -0.000057  0.000053  0.000000
  0.000053  -0.000059  0.000000
  0.000000  0.000000  0.000000

  -0.000055  0.000051  0.000000
  0.000051  -0.000064  0.000000
  0.000000  0.000000  0.000000

  -0.000062  0.000063  0.000000
  0.000063  -0.000070  0.000000
  0.000000  0.000000  0.000000

  -0.000060  0.000060  0.000000
  0.000060  -0.000068  0.000000
  0.000000  0.000000  0.000000

  -0.000060  0.000061  0.000000
  0.000061  -0.000077  0.000000
  0.000000  0.000000  0.000000

  -0.000072  0.000075  0.000000
  0.000075  -0.000083  0.000000
  0.000000  0.000000  0.000000

  -0.000068  0.000069  0.000000
  0.000069  -0.000079  0.000000
  0.000000  0.000000  0.000000

  -0.000058  0.000058  0.000000
  0.000058  -0.000074  0.000000
  0.000000  0.000000  0.000000

  -0.000064  0.000068  0.000000
  0.000068  -0.000078  0.000000
  0.000000  0.000000  0.000000

  -0.000055  0.000067  0.000000
  0.000067  -0.000090  0.000000
  0.000000  0.000000  0.000000

  -0.000056  0.000056  0.000000
  0.000056  -0.000073  0.000000
  0.000000  0.000000  0.000000

  -0.000053  0.000049  0.000000
  0.000049  -0.000063  0.000000
  0.000000  0.000000  0.000000

  -0.000058  0.000059  0.000000
  0.000059  -0.000066  0.000000
  0.000000  0.000000  0.000000

  -0.000050  0.000048  0.000000
  0.000048  -0.000063  0.000000
  0.000000  0.000000  0.000000

  -0.000055  0.000056  0.000000
  0.000056  -0.000063  0.000000
  0.000000  0.000000  0.000000

  -0.000052  0.000050  0.000000
  0.000050  -0.000055  0.000000
  0.000000  0.000000  0.000000

  -0.000046  0.000039  0.000000
  0.000039  -0.000050  0.000000
  0.000000  0.000000  0.000000

  -0.000049  0.000048  0.000000
  0.000048  -0.000054  0.000000
  0.000000  0.000000  0.000000

  -0.000046  0.000041  0.000000
  0.000041  -0.000044  0.000000
  0.000000  0.000000  0.000000

  -0.000041  0.000031  0.000000
  0.000031  -0.000039  0.000000
  0.000000  0.000000  0.000000

  -0.000044  0.000040  0.000000
  0.000040  -0.000044  0.000000
  0.000000  0.000000  0.000000

  -0.000042  0.000033  0.000000
  0.000033  -0.000033  0.000000
  0.000000  0.000000  0.000000

  -0.000054  0.000052  0.000000
  0.000052  -0.000058  0.000000
  0.000000  0.000000  0.000000

  -0.000048  0.000045  0.000000
  0.000045  -0.000059  0.000000
  0.000000  0.000000  0.000000

  -0.000052  0.000054  0.000000
  0.000054  -0.000063  0.000000
  0.000000  0.000000  0.000000

  -0.000051  0.000052  0.000000
  0.000052  -0.000068  0.000000
  0.000000  0.000000  0.000000

  -0.000045  0.000044  0.000000
  0.000044  -0.000059  0.000000
  0.000000  0.000000  0.000000

  -0.000044  0.000037  0.000000
  0.000037  -0.000048  0.000000
  0.000000  0.000000  0.000000

  -0.000047  0.000046  0.000000
  0.000046  -0.000051  0.000000
  0.000000  0.000000  0.000000

  -0.000041  0.000036  0.000000
  0.000036  -0.000047  0.000000
  0.000000  0.000000  0.000000

  -0.000045  0.000043  0.000000
  0.000043  -0.000049  0.000000
  0.000000  0.000000  0.000000

  -0.000043  0.000037  0.000000
  0.000037  -0.000039  0.000000
  0.000000  0.000000  0.000000

  -0.000035  0.000023  0.000000
  0.000023  -0.000029  0.000000
  0.000000  0.000000  0.000000

  -0.000050  0.000051  0.000000
  0.000051  -0.000060  0.000000
  0.000000  0.000000  0.000000

  -0.000036  0.000028  0.000000
  0.000028  -0.000036  0.000000
  0.000000  0.000000  0.000000

  -0.000055  0.000063  0.000000
  0.000063  -0.000079  0.000000
  0.000000  0.000000  0.000000

  -0.000043  0.000041  0.000000
  0.000041  -0.000056  0.000000
  0.000000  0.000000  0.000000

  -0.000047  0.000049  0.000000
  0.000049  -0.000058  0.000000
  0.000000  0.000000  0.000000

  -0.000045  0.000046  0.000000
  0.000046  -0.000065  0.000000
  0.000000  0.000000  0.000000

  -0.000040  0.000039  0.000000
  0.000039  -0.000054  0.000000
  0.000000  0.000000  0.000000

  -0.000038  0.000030  0.000000
  0.000030  -0.000038  0.000000
  0.000000  0.000000  0.000000

  -0.000040  0.000031  0.000000
  0.000031  -0.000032  0.000000
  0.000000  0.000000  0.000000

  -0.000035  0.000022  0.000000
  0.000022  -0.000025  0.000000
  0.000000  0.000000  0.000000

  -0.000037  0.000030  0.000000
  0.000030  -0.000030  0.000000
  0.000000  0.000000  0.000000

  -0.000032  0.000020  0.000000
  0.000020  -0.000025  0.000000
  0.000000  0.000000  0.000000

  -0.000033  0.000024  0.000000
  0.000024  -0.000022  0.000000
  0.000000  0.000000  0.000000

  -0.000035  0.000028  0.000000
  0.000028  -0.000028  0.000000
  0.000000  0.000000  0.000000

  -0.000034  0.000022  0.000000
  0.000022  -0.000018  0.000000
  0.000000  0.000000  0.000000

  -0.000036  0.000026  0.000000
  0.000026  -0.000032  0.000000
  0.000000  0.000000  0.000000

  -0.000031  0.000019  0.000000
  0.000019  -0.000022  0.000000
  0.000000  0.000000  0.000000

  -0.000026  0.000013  0.000000
  0.000013  -0.000015  0.000000
  0.000000  0.000000  0.000000

  -0.000028  0.000015  0.000000
  0.000015  -0.000017  0.000000
  0.000000  0.000000  0.000000

  -0.000030  0.000016  0.000000
  0.000016  -0.000011  0.000000
  0.000000  0.000000  0.000000

  -0.000025  0.000008  0.000000
  0.000008  -0.000006  0.000000
  0.000000  0.000000  0.000000

  -0.000024  0.000009  0.000000
  0.000009  -0.000009  0.000000
  0.000000  0.000000  0.000000

  -0.000027  0.000015  0.000000
  0.000015  -0.000009  0.000000
  0.000000  0.000000  0.000000

  -0.000023  0.000006  0.000000
  0.000006  -0.000004  0.000000
  0.000000  0.000000  0.000000

  -0.000026  0.000014  0.000000
  0.000014  -0.000008  0.000000
  0.000000  0.000000  0.000000

  -0.000023  0.000008  0.000000
  0.000008  0.000001  0.000000
  0.000000  0.000000  0.000000

  -0.000023  0.000010  0.000000
  0.000010  -0.000002  0.000000
  0.000000  0.000000  0.000000

  -0.000026  0.000011  0.000000
  0.000011  -0.000002  0.000000
  0.000000  0.000000  0.000000

  -0.000032  0.000018  0.000000
  0.000018  -0.000012  0.000000
  0.000000  0.000000  0.000000

  -0.000025  0.000012  0.000000
  0.000012  -0.000012  0.000000
  0.000000  0.000000  0.000000

  -0.000031  0.000020  0.000000
  0.000020  -0.000014  0.000000
  0.000000  0.000000  0.000000

  -0.000022  0.000005  0.000000
  0.000005  -0.000002  0.000000
  0.000000  0.000000  0.000000

  -0.000017  -0.000000  0.000000
  -0.000000  0.000005  0.000000
  0.000000  0.000000  0.000000

  -0.000018  0.000001  0.000000
  0.000001  0.000003  0.000000
  0.000000  0.000000  0.000000

  -0.000019  0.000003  0.000000
  0.000003  0.000008  0.000000
  0.000000  0.000000  0.000000

  -0.000014  -0.000006  0.000000
  -0.000006  0.000013  0.000000
  0.000000  0.000000  0.000000

  -0.000014  -0.000005  0.000000
  -0.000005  0.000010  0.000000
  0.000000  0.000000  0.000000

  -0.000017  0.000002  0.000000
  0.000002  0.000010  0.000000
  0.000000  0.000000  0.000000

  -0.000013  -0.000007  0.000000
  -0.000007  0.000015  0.000000
  0.000000  0.000000  0.000000

  -0.000016  0.000001  0.000000
  0.000001  0.000012  0.000000
  0.000000  0.000000  0.000000

  -0.000013  -0.000005  0.000000
  -0.000005  0.000020  0.000000
  0.000000  0.000000  0.000000

  -0.000013  -0.000003  0.000000
  -0.000003  0.000017  0.000000
  0.000000  0.000000  0.000000

  -0.000015  -0.000003  0.000000
  -0.000003  0.000016  0.000000
  0.000000  0.000000  0.000000

  -0.000019  0.000004  0.000000
  0.000004  0.000007  0.000000
  0.000000  0.000000  0.000000

  -0.000016  -0.000005  0.000000
  -0.000005  0.000009  0.000000
  0.000000  0.000000  0.000000

  -0.000016  -0.000001  0.000000
  -0.000001  0.000007  0.000000
  0.000000  0.000000  0.000000

  -0.000021  0.000007  0.000000
  0.000007  0.000005  0.000000
  0.000000  0.000000  0.000000

  -0.000012  -0.000008  0.000000
  -0.000008  0.000017  0.000000
  0.000000  0.000000  0.000000

  -0.000007  -0.000013  0.000000
  -0.000013  0.000023  0.000000
  0.000000  0.000000  0.000000

  -0.000008  -0.000012  0.000000
  -0.000012  0.000022  0.000000
  0.000000  0.000000  0.000000

  -0.000008  -0.000010  0.000000
  -0.000010  0.000026  0.000000
  0.000000  0.000000  0.000000

  -0.000004  -0.000019  0.000000
  -0.000019  0.000031  0.000000
  0.000000  0.000000  0.000000

  -0.000003  -0.000018  0.000000
  -0.000018  0.000028  0.000000
  0.000000  0.000000  0.000000

  -0.000055  0.000062  0.000000
  0.000062  -0.000074  0.000000
  0.000000  0.000000  0.000000

  -0.000036  0.000025  0.000000
  0.000025  -0.000031  0.000000
  0.000000  0.000000  0.000000

  -0.000038  0.000027  0.000000
  0.000027  -0.000025  0.000000
  0.000000  0.000000  0.000000

  -0.000043  0.000035  0.000000
  0.000035  -0.000036  0.000000
  0.000000  0.000000  0.000000

  -0.000033  0.000017  0.000000
  0.000017  -0.000020  0.000000
  0.000000  0.000000  0.000000

  -0.000033  0.000018  0.000000
  0.000018  -0.000021  0.000000
  0.000000  0.000000  0.000000

  -0.000035  0.000026  0.000000
  0.000026  -0.000023  0.000000
  0.000000  0.000000  0.000000

  -0.000030  0.000016  0.000000
  0.000016  -0.000019  0.000000
  0.000000  0.000000  0.000000

  -0.000033  0.000020  0.000000
  0.000020  -0.000017  0.000000
  0.000000  0.000000  0.000000

  -0.000028  0.000010  0.000000
  0.000010  -0.000011  0.000000
  0.000000  0.000000  0.000000

  -0.000028  0.000011  0.000000
  0.000011  -0.000012  0.000000
  0.000000  0.000000  0.000000

  -0.000038  0.000034  0.000000
  0.000034  -0.000045  0.000000
  0.000000  0.000000  0.000000

  -0.000041  0.000035  0.000000
  0.000035  -0.000039  0.000000
  0.000000  0.000000  0.000000

  -0.000044  0.000040  0.000000
  0.000040  -0.000045  0.000000
  0.000000  0.000000  0.000000

  -0.000007  -0.000011  0.000000
  -0.000011  0.000028  0.000000
  0.000000  0.000000  0.000000

  -0.000003  -0.000019  0.000000
  -0.000019  0.000032  0.000000
  0.000000  0.000000  0.000000

  -0.000006  -0.000011  0.000000
  -0.000011  0.000030  0.000000
  0.000000  0.000000  0.000000

  -0.000002  -0.000017  0.000000
  -0.000017  0.000037  0.000000
  0.000000  0.000000  0.000000

  -0.000002  -0.000016  0.000000
  -0.000016  0.000034  0.000000
  0.000000  0.000000  0.000000

  -0.000009  -0.000009  0.000000
  -0.000009  0.000025  0.000000
  0.000000  0.000000  0.000000

  -0.000005  -0.000018  0.000000
  -0.000018  0.000028  0.000000
  0.000000  0.000000  0.000000

  -0.000002  -0.000020  0.000000
  -0.000020  0.000034  0.000000
  0.000000  0.000000  0.000000

  0.000002  -0.000024  0.000000
  -0.000024  0.000039  0.000000
  0.000000  0.000000  0.000000

  0.000003  -0.000022  0.000000
  -0.000022  0.000043  0.000000
  0.000000  0.000000  0.000000

  0.000007  -0.000030  0.000000
  -0.000030  0.000048  0.000000
  0.000000  0.000000  0.000000

  0.000007  -0.000030  0.000000
  -0.000030  0.000045  0.000000
  0.000000  0.000000  0.000000

  -0.000003  -0.000016  0.000000
  -0.000016  0.000033  0.000000
  0.000000  0.000000  0.000000

  -0.000007  -0.000014  0.000000
  -0.000014  0.000025  0.000000
  0.000000  0.000000  0.000000

  -0.000011  -0.000006  0.000000
  -0.000006  0.000023  0.000000
  0.000000  0.000000  0.000000

  0.000003  -0.000025  0.000000
  -0.000025  0.000040  0.000000
  0.000000  0.000000  0.000000

  -0.000059  0.000071  0.000000
  0.000071  -0.000092  0.000000
  0.000000  0.000000  0.000000

  -0.000071  0.000078  0.000000
  0.000078  -0.000091  0.000000
  0.000000  0.000000  0.000000

  -0.000020  0.000004  0.000000
  0.000004  -0.000001  0.000000
  0.000000  0.000000  0.000000

  -0.000009  -0.000008  0.000000
  -0.000008  0.000022  0.000000
  0.000000  0.000000  0.000000

  0.000003  -0.000022  0.000000
  -0.000022  0.000042  0.000000
  0.000000  0.000000  0.000000

  0.000007  -0.000030  0.000000
  -0.000030  0.000044  0.000000
  0.000000  0.000000  0.000000

  -0.000045  0.000047  0.000000
  0.000047  -0.000057  0.000000
  0.000000  0.000000  0.000000

  -0.000032  0.000021  0.000000
  0.000021  -0.000017  0.000000
  0.000000  0.000000  0.000000

  -0.000034  0.000021  0.000000
  0.000021  -0.000017  0.000000
  0.000000  0.000000  0.000000

  -0.000030  0.000012  0.000000
  0.000012  -0.000014  0.000000
  0.000000  0.000000  0.000000

  -0.000051  0.000057  0.000000
  0.000057  -0.000070  0.000000
  0.000000  0.000000  0.000000

  -0.000028  0.000018  0.000000
  0.000018  -0.000022  0.000000
  0.000000  0.000000  0.000000

  -0.000027  0.000013  0.000000
  0.000013  -0.000007  0.000000
  0.000000  0.000000  0.000000

  -0.000006  -0.000014  0.000000
  -0.000014  0.000027  0.000000
  0.000000  0.000000  0.000000

  -0.000034  0.000027  0.000000
  0.000027  -0.000025  0.000000
  0.000000  0.000000  0.000000

  -0.000015  -0.000002  0.000000
  -0.000002  0.000014  0.000000
  0.000000  0.000000  0.000000

  -0.000010  -0.000011  0.000000
  -0.000011  0.000016  0.000000
  0.000000  0.000000  0.000000

  -0.000010  -0.000008  0.000000
  -0.000008  0.000021  0.000000
  0.000000  0.000000  0.000000

  -0.000016  -0.000002  0.000000
  -0.000002  0.000013  0.000000
  0.000000  0.000000  0.000000

  0.000009  -0.000028  0.000000
  -0.000028  0.000051  0.000000
  0.000000  0.000000  0.000000

  -0.000052  0.000054  0.000000
  0.000054  -0.000070  0.000000
  0.000000  0.000000  0.000000

  -0.000061  0.000065  0.000000
  0.000065  -0.000075  0.000000
  0.000000  0.000000  0.000000

  -0.000054  0.000064  0.000000
  0.000064  -0.000089  0.000000
  0.000000  0.000000  0.000000

  -0.000038  0.000035  0.000000
  0.000035  -0.000038  0.000000
  0.000000  0.000000  0.000000

  -0.000015  -0.000002  0.000000
  -0.000002  0.000009  0.000000
  0.000000  0.000000  0.000000

  -0.000011  -0.000008  0.000000
  -0.000008  0.000018  0.000000
  0.000000  0.000000  0.000000

  -0.000016  0.000000  0.000000
  0.000000  0.000014  0.000000
  0.000000  0.000000  0.000000

  -0.000014  -0.000001  0.000000
  -0.000001  0.000016  0.000000
  0.000000  0.000000  0.000000

  -0.000015  -0.000003  0.000000
  -0.000003  0.000012  0.000000
  0.000000  0.000000  0.000000

  -0.000011  -0.000009  0.000000
  -0.000009  0.000021  0.000000
  0.000000  0.000000  0.000000

  -0.000025  0.000011  0.000000
  0.000011  -0.000011  0.000000
  0.000000  0.000000  0.000000

  -0.000028  0.000019  0.000000
  0.000019  -0.000013  0.000000
  0.000000  0.000000  0.000000

  -0.000028  0.000016  0.000000
  0.000016  -0.000018  0.000000
  0.000000  0.000000  0.000000

  -0.000024  0.000010  0.000000
  0.000010  -0.000008  0.000000
  0.000000  0.000000  0.000000

  -0.000003  -0.000015  0.000000
  -0.000015  0.000031  0.000000
  0.000000  0.000000  0.000000

  0.000003  -0.000023  0.000000
  -0.000023  0.000045  0.000000
  0.000000  0.000000  0.000000

  0.000008  -0.000031  0.000000
  -0.000031  0.000049  0.000000
  0.000000  0.000000  0.000000

  0.000004  -0.000023  0.000000
  -0.000023  0.000046  0.000000
  0.000000  0.000000  0.000000

  0.000008  -0.000028  0.000000
  -0.000028  0.000053  0.000000
  0.000000  0.000000  0.000000

  0.000003  -0.000025  0.000000
  -0.000025  0.000042  0.000000
  0.000000  0.000000  0.000000

  -0.000001  -0.000018  0.000000
  -0.000018  0.000041  0.000000
  0.000000  0.000000  0.000000

  0.000008  -0.000031  0.000000
  -0.000031  0.000051  0.000000
  0.000000  0.000000  0.000000

  0.000013  -0.000037  0.000000
  -0.000037  0.000057  0.000000
  0.000000  0.000000  0.000000

  0.000012  -0.000036  0.000000
  -0.000036  0.000055  0.000000
  0.000000  0.000000  0.000000

  0.000014  -0.000033  0.000000
  -0.000033  0.000059  0.000000
  0.000000  0.000000  0.000000

  0.000019  -0.000042  0.000000
  -0.000042  0.000063  0.000000
  0.000000  0.000000  0.000000

  0.000019  -0.000042  0.000000
  -0.000042  0.000061  0.000000
  0.000000  0.000000  0.000000

  0.000015  -0.000034  0.000000
  -0.000034  0.000061  0.000000
  0.000000  0.000000  0.000000

  0.000018  -0.000043  0.000000
  -0.000043  0.000068  0.000000
  0.000000  0.000000  0.000000

  0.000015  -0.000035  0.000000
  -0.000035  0.000061  0.000000
  0.000000  0.000000  0.000000

  0.000024  -0.000049  0.000000
  -0.000049  0.000078  0.000000
  0.000000  0.000000  0.000000

  0.000018  -0.000041  0.000000
  -0.000041  0.000070  0.000000
  0.000000  0.000000  0.000000

  0.000019  -0.000039  0.000000
  -0.000039  0.000065  0.000000
  0.000000  0.000000  0.000000

  0.000013  -0.000033  0.000000
  -0.000033  0.000057  0.000000
  0.000000  0.000000  0.000000

  -0.000049  0.000055  0.000000
  0.000055  -0.000067  0.000000
  0.000000  0.000000  0.000000

  -0.000020  0.000005  0.000000
  0.000005  0.000004  0.000000
  0.000000  0.000000  0.000000

  -0.000028  0.000014  0.000000
  0.000014  -0.000008  0.000000
  0.000000  0.000000  0.000000

  -0.000031  0.000020  0.000000
  0.000020  -0.000016  0.000000
  0.000000  0.000000  0.000000

  0.000008  -0.000028  0.000000
  -0.000028  0.000049  0.000000
  0.000000  0.000000  0.000000

  0.000012  -0.000036  0.000000
  -0.000036  0.000053  0.000000
  0.000000  0.000000  0.000000

  0.000013  -0.000036  0.000000
  -0.000036  0.000052  0.000000
  0.000000  0.000000  0.000000

  -0.000012  -0.000005  0.000000
  -0.000005  0.000021  0.000000
  0.000000  0.000000  0.000000

  -0.000020  0.000005  0.000000
  0.000005  0.000007  0.000000
  0.000000  0.000000  0.000000

  -0.000018  0.000003  0.000000
  0.000003  0.000001  0.000000
  0.000000  0.000000  0.000000

  -0.000024  0.000010  0.000000
  0.000010  0.000001  0.000000
  0.000000  0.000000  0.000000

  -0.000021  0.000009  0.000000
  0.000009  -0.000007  0.000000
  0.000000  0.000000  0.000000

  -0.000016  0.000002  0.000000
  0.000002  0.000003  0.000000
  0.000000  0.000000  0.000000

  -0.000018  0.000004  0.000000
  0.000004  0.000010  0.000000
  0.000000  0.000000  0.000000

  -0.000013  -0.000004  0.000000
  -0.000004  0.000013  0.000000
  0.000000  0.000000  0.000000

  -0.000016  0.000003  0.000000
  0.000003  0.000012  0.000000
  0.000000  0.000000  0.000000

  -0.000013  -0.000002  0.000000
  -0.000002  0.000019  0.000000
  0.000000  0.000000  0.000000

  -0.000010  -0.000010  0.000000
  -0.000010  0.000023  0.000000
  0.000000  0.000000  0.000000

  -0.000017  0.000000  0.000000
  0.000000  0.000008  0.000000
  0.000000  0.000000  0.000000

  -0.000012  -0.000006  0.000000
  -0.000006  0.000016  0.000000
  0.000000  0.000000  0.000000

  -0.000012  -0.000003  0.000000
  -0.000003  0.000021  0.000000
  0.000000  0.000000  0.000000

  -0.000010  -0.000008  0.000000
  -0.000008  0.000028  0.000000
  0.000000  0.000000  0.000000

  -0.000009  -0.000011  0.000000
  -0.000011  0.000025  0.000000
  0.000000  0.000000  0.000000

  -0.000012  -0.000004  0.000000
  -0.000004  0.000023  0.000000
  0.000000  0.000000  0.000000

  -0.000009  -0.000009  0.000000
  -0.000009  0.000030  0.000000
  0.000000  0.000000  0.000000

  -0.000005  -0.000016  0.000000
  -0.000016  0.000031  0.000000
  0.000000  0.000000  0.000000

  -0.000005  -0.000015  0.000000
  -0.000015  0.000029  0.000000
  0.000000  0.000000  0.000000

  -0.000005  -0.000013  0.000000
  -0.000013  0.000033  0.000000
  0.000000  0.000000  0.000000

  -0.000002  -0.000020  0.000000
  -0.000020  0.000038  0.000000
  0.000000  0.000000  0.000000

  -0.000002  -0.000020  0.000000
  -0.000020  0.000036  0.000000
  0.000000  0.000000  0.000000

  -0.000004  -0.000013  0.000000
  -0.000013  0.000036  0.000000
  0.000000  0.000000  0.000000

  -0.000001  -0.000021  0.000000
  -0.000021  0.000040  0.000000
  0.000000  0.000000  0.000000

  -0.000000  -0.000018  0.000000
  -0.000018  0.000041  0.000000
  0.000000  0.000000  0.000000

  -0.000006  -0.000012  0.000000
  -0.000012  0.000032  0.000000
  0.000000  0.000000  0.000000

  -0.000004  -0.000014  0.000000
  -0.000014  0.000038  0.000000
  0.000000  0.000000  0.000000

  -0.000001  -0.000019  0.000000
  -0.000019  0.000045  0.000000
  0.000000  0.000000  0.000000

  -0.000004  -0.000017  0.000000
  -0.000017  0.000034  0.000000
  0.000000  0.000000  0.000000

  -0.000008  -0.000009  0.000000
  -0.000009  0.000032  0.000000
  0.000000  0.000000  0.000000

  -0.000008  -0.000012  0.000000
  -0.000012  0.000027  0.000000
  0.000000  0.000000  0.000000

  -0.000003  -0.000017  0.000000
  -0.000017  0.000035  0.000000
  0.000000  0.000000  0.000000

  -0.000011  -0.000004  0.000000
  -0.000004  0.000025  0.000000
  0.000000  0.000000  0.000000

  -0.000000  -0.000022  0.000000
  -0.000022  0.000042  0.000000
  0.000000  0.000000  0.000000

  0.000005  -0.000027  0.000000
  -0.000027  0.000047  0.000000
  0.000000  0.000000  0.000000

  0.000004  -0.000026  0.000000
  -0.000026  0.000046  0.000000
  0.000000  0.000000  0.000000

  0.000004  -0.000024  0.000000
  -0.000024  0.000050  0.000000
  0.000000  0.000000  0.000000

  0.000008  -0.000031  0.000000
  -0.000031  0.000054  0.000000
  0.000000  0.000000  0.000000

  0.000009  -0.000031  0.000000
  -0.000031  0.000052  0.000000
  0.000000  0.000000  0.000000

  0.000009  -0.000029  0.000000
  -0.000029  0.000056  0.000000
  0.000000  0.000000  0.000000

  0.000005  -0.000024  0.000000
  -0.000024  0.000052  0.000000
  0.000000  0.000000  0.000000

  0.000009  -0.000032  0.000000
  -0.000032  0.000056  0.000000
  0.000000  0.000000  0.000000

  0.000006  -0.000025  0.000000
  -0.000025  0.000053  0.000000
  0.000000  0.000000  0.000000

  0.000009  -0.000030  0.000000
  -0.000030  0.000060  0.000000
  0.000000  0.000000  0.000000

  0.000009  -0.000029  0.000000
  -0.000029  0.000057  0.000000
  0.000000  0.000000  0.000000

  0.000009  -0.000032  0.000000
  -0.000032  0.000058  0.000000
  0.000000  0.000000  0.000000

  0.000013  -0.000036  0.000000
  -0.000036  0.000061  0.000000
  0.000000  0.000000  0.000000

  0.000014  -0.000034  0.000000
  -0.000034  0.000065  0.000000
  0.000000  0.000000  0.000000

  0.000020  -0.000041  0.000000
  -0.000041  0.000068  0.000000
  0.000000  0.000000  0.000000

  0.000018  -0.000042  0.000000
  -0.000042  0.000069  0.000000
  0.000000  0.000000  0.000000

  0.000005  -0.000027  0.000000
  -0.000027  0.000050  0.000000
  0.000000  0.000000  0.000000

  0.000000  -0.000020  0.000000
  -0.000020  0.000048  0.000000
  0.000000  0.000000  0.000000

  0.000001  -0.000022  0.000000
  -0.000022  0.000044  0.000000
  0.000000  0.000000  0.000000

  -0.000003  -0.000014  0.000000
  -0.000014  0.000040  0.000000
  0.000000  0.000000  0.000000

  0.000006  -0.000027  0.000000
  -0.000027  0.000051  0.000000
  0.000000  0.000000  0.000000

  0.000014  -0.000037  0.000000
  -0.000037  0.000063  0.000000
  0.000000  0.000000  0.000000

  -0.000013  -0.000007  0.000000
  -0.000007  0.000019  0.000000
  0.000000  0.000000  0.000000

  -0.000007  -0.000012  0.000000
  -0.000012  0.000029  0.000000
  0.000000  0.000000  0.000000

  0.000021  -0.000047  0.000000
  -0.000047  0.000078  0.000000
  0.000000  0.000000  0.000000

  -0.000011  -0.000006  0.000000
  -0.000006  0.000021  0.000000
  0.000000  0.000000  0.000000

  0.000013  -0.000037  0.000000
  -0.000037  0.000059  0.000000
  0.000000  0.000000  0.000000

  0.000015  -0.000034  0.000000
  -0.000034  0.000063  0.000000
  0.000000  0.000000  0.000000

  0.000017  -0.000042  0.000000
  -0.000042  0.000069  0.000000
  0.000000  0.000000  0.000000

  0.000022  -0.000041  0.000000
  -0.000041  0.000068  0.000000
  0.000000  0.000000  0.000000

  -0.000022  0.000008  0.000000
  0.000008  0.000003  0.000000
  0.000000  0.000000  0.000000

  -0.000020  0.000007  0.000000
  0.000007  -0.000003  0.000000
  0.000000  0.000000  0.000000

  -0.000026  0.000014  0.000000
  0.000014  -0.000007  0.000000
  0.000000  0.000000  0.000000

  -0.000023  0.000013  0.000000
  0.000013  -0.000014  0.000000
  0.000000  0.000000  0.000000

  -0.000025  0.000013  0.000000
  0.000013  -0.000003  0.000000
  0.000000  0.000000  0.000000

  -0.000029  0.000021  0.000000
  0.000021  -0.000017  0.000000
  0.000000  0.000000  0.000000

  -0.000029  0.000018  0.000000
  0.000018  -0.000012  0.000000
  0.000000  0.000000  0.000000

  -0.000022  0.000011  0.000000
  0.000011  -0.000011  0.000000
  0.000000  0.000000  0.000000

  -0.000018  0.000006  0.000000
  0.000006  -0.000001  0.000000
  0.000000  0.000000  0.000000

  -0.000027  0.000016  0.000000
  0.000016  -0.000008  0.000000
  0.000000  0.000000  0.000000

  -0.000024  0.000015  0.000000
  0.000015  -0.000017  0.000000
  0.000000  0.000000  0.000000

  -0.000020  0.000009  0.000000
  0.000009  -0.000007  0.000000
  0.000000  0.000000  0.000000

  -0.000026  0.000014  0.000000
  0.000014  -0.000018  0.000000
  0.000000  0.000000  0.000000

  -0.000028  0.000019  0.000000
  0.000019  -0.000024  0.000000
  0.000000  0.000000  0.000000

  -0.000025  0.000018  0.000000
  0.000018  -0.000022  0.000000
  0.000000  0.000000  0.000000

  -0.000030  0.000022  0.000000
  0.000022  -0.000019  0.000000
  0.000000  0.000000  0.000000

  -0.000027  0.000021  0.000000
  0.000021  -0.000028  0.000000
  0.000000  0.000000  0.000000

  -0.000034  0.000029  0.000000
  0.000029  -0.000030  0.000000
  0.000000  0.000000  0.000000

  -0.000032  0.000026  0.000000
  0.000026  -0.000025  0.000000
  0.000000  0.000000  0.000000

  -0.000028  0.000020  0.000000
  0.000020  -0.000015  0.000000
  0.000000  0.000000  0.000000

  -0.000025  0.000013  0.000000
  0.000013  -0.000004  0.000000
  0.000000  0.000000  0.000000

  -0.000024  0.000010  0.000000
  0.000010  0.000003  0.000000
  0.000000  0.000000  0.000000

  -0.000016  0.000006  0.000000
  0.000006  0.000002  0.000000
  0.000000  0.000000  0.000000

  -0.000016  -0.000001  0.000000
  -0.000001  0.000010  0.000000
  0.000000  0.000000  0.000000

  -0.000019  0.000007  0.000000
  0.000007  0.000004  0.000000
  0.000000  0.000000  0.000000

  -0.000016  0.000001  0.000000
  0.000001  0.000014  0.000000
  0.000000  0.000000  0.000000

  -0.000032  0.000026  0.000000
  0.000026  -0.000023  0.000000
  0.000000  0.000000  0.000000

  -0.000025  0.000019  0.000000
  0.000019  -0.000024  0.000000
  0.000000  0.000000  0.000000

  -0.000030  0.000024  0.000000
  0.000024  -0.000020  0.000000
  0.000000  0.000000  0.000000

  -0.000026  0.000022  0.000000
  0.000022  -0.000030  0.000000
  0.000000  0.000000  0.000000

  -0.000023  0.000017  0.000000
  0.000017  -0.000019  0.000000
  0.000000  0.000000  0.000000

  0.000003  -0.000026  0.000000
  -0.000026  0.000044  0.000000
  0.000000  0.000000  0.000000

  -0.000033  0.000028  0.000000
  0.000028  -0.000028  0.000000
  0.000000  0.000000  0.000000

  -0.000030  0.000028  0.000000
  0.000028  -0.000040  0.000000
  0.000000  0.000000  0.000000

  -0.000029  0.000024  0.000000
  0.000024  -0.000033  0.000000
  0.000000  0.000000  0.000000

  -0.000007  -0.000010  0.000000
  -0.000010  0.000033  0.000000
  0.000000  0.000000  0.000000

  -0.000028  0.000025  0.000000
  0.000025  -0.000035  0.000000
  0.000000  0.000000  0.000000

  -0.000027  0.000017  0.000000
  0.000017  -0.000009  0.000000
  0.000000  0.000000  0.000000

  0.000006  -0.000025  0.000000
  -0.000025  0.000056  0.000000
  0.000000  0.000000  0.000000

  0.000010  -0.000032  0.000000
  -0.000032  0.000059  0.000000
  0.000000  0.000000  0.000000

  0.000006  -0.000026  0.000000
  -0.000026  0.000057  0.000000
  0.000000  0.000000  0.000000

  0.000010  -0.000030  0.000000
  -0.000030  0.000063  0.000000
  0.000000  0.000000  0.000000

  0.000005  -0.000028  0.000000
  -0.000028  0.000054  0.000000
  0.000000  0.000000  0.000000

  0.000010  -0.000033  0.000000
  -0.000033  0.000061  0.000000
  0.000000  0.000000  0.000000

  0.000015  -0.000038  0.000000
  -0.000038  0.000066  0.000000
  0.000000  0.000000  0.000000

  0.000014  -0.000037  0.000000
  -0.000037  0.000065  0.000000
  0.000000  0.000000  0.000000

  0.000016  -0.000035  0.000000
  -0.000035  0.000067  0.000000
  0.000000  0.000000  0.000000

  -0.000021  0.000013  0.000000
  0.000013  -0.000013  0.000000
  0.000000  0.000000  0.000000

  0.000001  -0.000021  0.000000
  -0.000021  0.000050  0.000000
  0.000000  0.000000  0.000000

  0.000002  -0.000023  0.000000
  -0.000023  0.000046  0.000000
  0.000000  0.000000  0.000000

  -0.000003  -0.000015  0.000000
  -0.000015  0.000042  0.000000
  0.000000  0.000000  0.000000

  -0.000002  -0.000016  0.000000
  -0.000016  0.000044  0.000000
  0.000000  0.000000  0.000000

  -0.000003  -0.000017  0.000000
  -0.000017  0.000037  0.000000
  0.000000  0.000000  0.000000

  -0.000002  -0.000018  0.000000
  -0.000018  0.000039  0.000000
  0.000000  0.000000  0.000000

  0.000002  -0.000023  0.000000
  -0.000023  0.000047  0.000000
  0.000000  0.000000  0.000000

  0.000010  -0.000031  0.000000
  -0.000031  0.000064  0.000000
  0.000000  0.000000  0.000000

  -0.000007  -0.000011  0.000000
  -0.000011  0.000036  0.000000
  0.000000  0.000000  0.000000

  -0.000006  -0.000012  0.000000
  -0.000012  0.000039  0.000000
  0.000000  0.000000  0.000000

  -0.000047  0.000049  0.000000
  0.000049  -0.000068  0.000000
  0.000000  0.000000  0.000000

  0.000001  -0.000024  0.000000
  -0.000024  0.000036  0.000000
  0.000000  0.000000  0.000000

  0.000002  -0.000022  0.000000
  -0.000022  0.000040  0.000000
  0.000000  0.000000  0.000000

  0.000007  -0.000030  0.000000
  -0.000030  0.000042  0.000000
  0.000000  0.000000  0.000000

  0.000007  -0.000027  0.000000
  -0.000027  0.000047  0.000000
  0.000000  0.000000  0.000000

  0.000001  -0.000021  0.000000
  -0.000021  0.000039  0.000000
  0.000000  0.000000  0.000000

  0.000012  -0.000036  0.000000
  -0.000036  0.000050  0.000000
  0.000000  0.000000  0.000000

  0.000008  -0.000027  0.000000
  -0.000027  0.000048  0.000000
  0.000000  0.000000  0.000000

  0.000012  -0.000036  0.000000
  -0.000036  0.000049  0.000000
  0.000000  0.000000  0.000000

  -0.000043  0.000045  0.000000
  0.000045  -0.000063  0.000000
  0.000000  0.000000  0.000000

  0.000006  -0.000029  0.000000
  -0.000029  0.000040  0.000000
  0.000000  0.000000  0.000000

  -0.000020  0.000001  0.000000
  0.000001  0.000001  0.000000
  0.000000  0.000000  0.000000

  -0.000022  0.000008  0.000000
  0.000008  0.000003  0.000000
  0.000000  0.000000  0.000000

  -0.000039  0.000036  0.000000
  0.000036  -0.000049  0.000000
  0.000000  0.000000  0.000000

  -0.000020  0.000002  0.000000
  0.000002  -0.000001  0.000000
  0.000000  0.000000  0.000000

  0.000002  -0.000024  0.000000
  -0.000024  0.000037  0.000000
  0.000000  0.000000  0.000000

  -0.000058  0.000061  0.000000
  0.000061  -0.000080  0.000000
  0.000000  0.000000  0.000000

  -0.000025  0.000013  0.000000
  0.000013  -0.000005  0.000000
  0.000000  0.000000  0.000000

  0.000002  -0.000021  0.000000
  -0.000021  0.000052  0.000000
  0.000000  0.000000  0.000000

  0.000006  -0.000028  0.000000
  -0.000028  0.000055  0.000000
  0.000000  0.000000  0.000000

  0.000003  -0.000022  0.000000
  -0.000022  0.000054  0.000000
  0.000000  0.000000  0.000000

  0.000007  -0.000026  0.000000
  -0.000026  0.000059  0.000000
  0.000000  0.000000  0.000000

  0.000012  -0.000033  0.000000
  -0.000033  0.000062  0.000000
  0.000000  0.000000  0.000000

  0.000007  -0.000027  0.000000
  -0.000027  0.000061  0.000000
  0.000000  0.000000  0.000000

  0.000011  -0.000032  0.000000
  -0.000032  0.000068  0.000000
  0.000000  0.000000  0.000000

  0.000003  -0.000024  0.000000
  -0.000024  0.000050  0.000000
  0.000000  0.000000  0.000000

  0.000007  -0.000029  0.000000
  -0.000029  0.000057  0.000000
  0.000000  0.000000  0.000000

  0.000003  -0.000022  0.000000
  -0.000022  0.000055  0.000000
  0.000000  0.000000  0.000000

  0.000003  -0.000024  0.000000
  -0.000024  0.000052  0.000000
  0.000000  0.000000  0.000000

  0.000007  -0.000029  0.000000
  -0.000029  0.000059  0.000000
  0.000000  0.000000  0.000000

  0.000012  -0.000034  0.000000
  -0.000034  0.000065  0.000000
  0.000000  0.000000  0.000000

  -0.000002  -0.000017  0.000000
  -0.000017  0.000046  0.000000
  0.000000  0.000000  0.000000

  -0.000001  -0.000019  0.000000
  -0.000019  0.000041  0.000000
  0.000000  0.000000  0.000000

  -0.000005  -0.000013  0.000000
  -0.000013  0.000042  0.000000
  0.000000  0.000000  0.000000

  -0.000004  -0.000015  0.000000
  -0.000015  0.000036  0.000000
  0.000000  0.000000  0.000000

  -0.000000  -0.000019  0.000000
  -0.000019  0.000043  0.000000
  0.000000  0.000000  0.000000

  -0.000004  -0.000013  0.000000
  -0.000013  0.000043  0.000000
  0.000000  0.000000  0.000000

  -0.000001  -0.000017  0.000000
  -0.000017  0.000048  0.000000
  0.000000  0.000000  0.000000

  -0.000004  -0.000015  0.000000
  -0.000015  0.000039  0.000000
  0.000000  0.000000  0.000000

  0.000001  -0.000020  0.000000
  -0.000020  0.000045  0.000000
  0.000000  0.000000  0.000000

  -0.000008  -0.000009  0.000000
  -0.000009  0.000035  0.000000
  0.000000  0.000000  0.000000

  -0.000007  -0.000010  0.000000
  -0.000010  0.000030  0.000000
  0.000000  0.000000  0.000000

  -0.000011  -0.000003  0.000000
  -0.000003  0.000027  0.000000
  0.000000  0.000000  0.000000

  -0.000011  -0.000005  0.000000
  -0.000005  0.000030  0.000000
  0.000000  0.000000  0.000000

  -0.000007  -0.000009  0.000000
  -0.000009  0.000037  0.000000
  0.000000  0.000000  0.000000

  -0.000003  -0.000014  0.000000
  -0.000014  0.000046  0.000000
  0.000000  0.000000  0.000000

  -0.000000  -0.000018  0.000000
  -0.000018  0.000051  0.000000
  0.000000  0.000000  0.000000

  0.000004  -0.000025  0.000000
  -0.000025  0.000053  0.000000
  0.000000  0.000000  0.000000

  0.000001  -0.000019  0.000000
  -0.000019  0.000052  0.000000
  0.000000  0.000000  0.000000

  0.000004  -0.000023  0.000000
  -0.000023  0.000058  0.000000
  0.000000  0.000000  0.000000

  0.000008  -0.000030  0.000000
  -0.000030  0.000061  0.000000
  0.000000  0.000000  0.000000

  0.000005  -0.000023  0.000000
  -0.000023  0.000059  0.000000
  0.000000  0.000000  0.000000

  0.000008  -0.000028  0.000000
  -0.000028  0.000065  0.000000
  0.000000  0.000000  0.000000

  0.000001  -0.000021  0.000000
  -0.000021  0.000048  0.000000
  0.000000  0.000000  0.000000

  -0.000002  -0.000015  0.000000
  -0.000015  0.000048  0.000000
  0.000000  0.000000  0.000000

  -0.000002  -0.000017  0.000000
  -0.000017  0.000044  0.000000
  0.000000  0.000000  0.000000

  0.000002  -0.000021  0.000000
  -0.000021  0.000050  0.000000
  0.000000  0.000000  0.000000

  0.000004  -0.000025  0.000000
  -0.000025  0.000056  0.000000
  0.000000  0.000000  0.000000

  0.000001  -0.000019  0.000000
  -0.000019  0.000055  0.000000
  0.000000  0.000000  0.000000

  0.000005  -0.000026  0.000000
  -0.000026  0.000057  0.000000
  0.000000  0.000000  0.000000

  0.000002  -0.000020  0.000000
  -0.000020  0.000057  0.000000
  0.000000  0.000000  0.000000

  0.000004  -0.000024  0.000000
  -0.000024  0.000062  0.000000
  0.000000  0.000000  0.000000

  0.000002  -0.000022  0.000000
  -0.000022  0.000053  0.000000
  0.000000  0.000000  0.000000

  0.000006  -0.000027  0.000000
  -0.000027  0.000060  0.000000
  0.000000  0.000000  0.000000

  0.000011  -0.000030  0.000000
  -0.000030  0.000064  0.000000
  0.000000  0.000000  0.000000

  0.000009  -0.000029  0.000000
  -0.000029  0.000062  0.000000
  0.000000  0.000000  0.000000

  0.000009  -0.000028  0.000000
  -0.000028  0.000065  0.000000
  0.000000  0.000000  0.000000

  -0.000008  -0.000010  0.000000
  -0.000010  0.000028  0.000000
  0.000000  0.000000  0.000000

  -0.000002  -0.000016  0.000000
  -0.000016  0.000050  0.000000
  0.000000  0.000000  0.000000

  -0.000001  -0.000018  0.000000
  -0.000018  0.000045  0.000000
  0.000000  0.000000  0.000000

  -0.000005  -0.000011  0.000000
  -0.000011  0.000042  0.000000
  0.000000  0.000000  0.000000

  -0.000005  -0.000012  0.000000
  -0.000012  0.000045  0.000000
  0.000000  0.000000  0.000000

  -0.000005  -0.000013  0.000000
  -0.000013  0.000037  0.000000
  0.000000  0.000000  0.000000

  -0.000009  -0.000006  0.000000
  -0.000006  0.000024  0.000000
  0.000000  0.000000  0.000000

  -0.000006  -0.000010  0.000000
  -0.000010  0.000040  0.000000
  0.000000  0.000000  0.000000

  -0.000005  -0.000012  0.000000
  -0.000012  0.000034  0.000000
  0.000000  0.000000  0.000000

  -0.000010  -0.000005  0.000000
  -0.000005  0.000032  0.000000
  0.000000  0.000000  0.000000

  -0.000006  -0.000011  0.000000
  -0.000011  0.000032  0.000000
  0.000000  0.000000  0.000000

  -0.000009  -0.000008  0.000000
  -0.000008  0.000027  0.000000
  0.000000  0.000000  0.000000

  -0.000009  -0.000007  0.000000
  -0.000007  0.000034  0.000000
  0.000000  0.000000  0.000000

  -0.000007  -0.000008  0.000000
  -0.000008  0.000029  0.000000
  0.000000  0.000000  0.000000

  -0.000012  -0.000002  0.000000
  -0.000002  0.000026  0.000000
  0.000000  0.000000  0.000000

  -0.000011  -0.000003  0.000000
  -0.000003  0.000030  0.000000
  0.000000  0.000000  0.000000

  -0.000011  -0.000006  0.000000
  -0.000006  0.000022  0.000000
  0.000000  0.000000  0.000000

  -0.000003  -0.000014  0.000000
  -0.000014  0.000040  0.000000
  0.000000  0.000000  0.000000

  0.000000  -0.000018  0.000000
  -0.000018  0.000047  0.000000
  0.000000  0.000000  0.000000

  -0.000009  -0.000005  0.000000
  -0.000005  0.000023  0.000000
  0.000000  0.000000  0.000000

  -0.000007  -0.000009  0.000000
  -0.000009  0.000031  0.000000
  0.000000  0.000000  0.000000

  -0.000010  -0.000004  0.000000
  -0.000004  0.000032  0.000000
  0.000000  0.000000  0.000000

  -0.000009  -0.000006  0.000000
  -0.000006  0.000027  0.000000
  0.000000  0.000000  0.000000

  -0.000006  -0.000010  0.000000
  -0.000010  0.000034  0.000000
  0.000000  0.000000  0.000000

  -0.000008  -0.000008  0.000000
  -0.000008  0.000033  0.000000
  0.000000  0.000000  0.000000

  -0.000005  -0.000014  0.000000
  -0.000014  0.000033  0.000000
  0.000000  0.000000  0.000000

  -0.000010  -0.000007  0.000000
  -0.000007  0.000031  0.000000
  0.000000  0.000000  0.000000

  -0.000005  -0.000013  0.000000
  -0.000013  0.000030  0.000000
  0.000000  0.000000  0.000000

  -0.000008  -0.000008  0.000000
  -0.000008  0.000024  0.000000
  0.000000  0.000000  0.000000

  -0.000008  -0.000007  0.000000
  -0.000007  0.000037  0.000000
  0.000000  0.000000  0.000000

  -0.000014  -0.000002  0.000000
  -0.000002  0.000023  0.000000
  0.000000  0.000000  0.000000

  -0.000013  -0.000001  0.000000
  -0.000001  0.000024  0.000000
  0.000000  0.000000  0.000000

  -0.000012  -0.000003  0.000000
  -0.000003  0.000018  0.000000
  0.000000  0.000000  0.000000

  -0.000016  0.000004  0.000000
  0.000004  0.000015  0.000000
  0.000000  0.000000  0.000000

  -0.000015  0.000003  0.000000
  0.000003  0.000018  0.000000
  0.000000  0.000000  0.000000

  -0.000013  -0.000002  0.000000
  -0.000002  0.000015  0.000000
  0.000000  0.000000  0.000000

  -0.000017  0.000005  0.000000
  0.000005  0.000012  0.000000
  0.000000  0.000000  0.000000

  -0.000015  0.000002  0.000000
  0.000002  0.000009  0.000000
  0.000000  0.000000  0.000000

  -0.000013  0.000001  0.000000
  0.000001  0.000012  0.000000
  0.000000  0.000000  0.000000

  -0.000011  -0.000004  0.000000
  -0.000004  0.000021  0.000000
  0.000000  0.000000  0.000000

  -0.000014  0.000002  0.000000
  0.000002  0.000021  0.000000
  0.000000  0.000000  0.000000

  -0.000014  -0.000000  0.000000
  -0.000000  0.000012  0.000000
  0.000000  0.000000  0.000000

  -0.000015  0.000004  0.000000
  0.000004  0.000006  0.000000
  0.000000  0.000000  0.000000

  -0.000013  -0.000003  0.000000
  -0.000003  0.000025  0.000000
  0.000000  0.000000  0.000000

  -0.000012  -0.000005  0.000000
  -0.000005  0.000020  0.000000
  0.000000  0.000000  0.000000

  -0.000015  0.000003  0.000000
  0.000003  0.000014  0.000000
  0.000000  0.000000  0.000000

  0.000007  -0.000027  0.000000
  -0.000027  0.000063  0.000000
  0.000000  0.000000  0.000000

  0.000012  -0.000034  0.000000
  -0.000034  0.000067  0.000000
  0.000000  0.000000  0.000000

  -0.000002  -0.000016  0.000000
  -0.000016  0.000041  0.000000
  0.000000  0.000000  0.000000

  -0.000009  -0.000008  0.000000
  -0.000008  0.000020  0.000000
  0.000000  0.000000  0.000000

  -0.000001  -0.000016  0.000000
  -0.000016  0.000052  0.000000
  0.000000  0.000000  0.000000

  0.000003  -0.000023  0.000000
  -0.000023  0.000055  0.000000
  0.000000  0.000000  0.000000

  0.000000  -0.000017  0.000000
  -0.000017  0.000054  0.000000
  0.000000  0.000000  0.000000

  0.000003  -0.000021  0.000000
  -0.000021  0.000059  0.000000
  0.000000  0.000000  0.000000

  0.000007  -0.000027  0.000000
  -0.000027  0.000062  0.000000
  0.000000  0.000000  0.000000

  0.000004  -0.000021  0.000000
  -0.000021  0.000061  0.000000
  0.000000  0.000000  0.000000

  0.000007  -0.000025  0.000000
  -0.000025  0.000066  0.000000
  0.000000  0.000000  0.000000

  0.000000  -0.000019  0.000000
  -0.000019  0.000050  0.000000
  0.000000  0.000000  0.000000

  0.000004  -0.000023  0.000000
  -0.000023  0.000057  0.000000
  0.000000  0.000000  0.000000

  0.000001  -0.000018  0.000000
  -0.000018  0.000056  0.000000
  0.000000  0.000000  0.000000

  0.000009  -0.000032  0.000000
  -0.000032  0.000070  0.000000
  0.000000  0.000000  0.000000

  0.000008  -0.000025  0.000000
  -0.000025  0.000065  0.000000
  0.000000  0.000000  0.000000

  0.000006  -0.000027  0.000000
  -0.000027  0.000064  0.000000
  0.000000  0.000000  0.000000

  0.000004  -0.000021  0.000000
  -0.000021  0.000061  0.000000
  0.000000  0.000000  0.000000

  0.000009  -0.000031  0.000000
  -0.000031  0.000070  0.000000
  0.000000  0.000000  0.000000

  0.000004  -0.000023  0.000000
  -0.000023  0.000059  0.000000
  0.000000  0.000000  0.000000

  0.000001  -0.000018  0.000000
  -0.000018  0.000057  0.000000
  0.000000  0.000000  0.000000

  0.000007  -0.000027  0.000000
  -0.000027  0.000064  0.000000
  0.000000  0.000000  0.000000

  0.000001  -0.000020  0.000000
  -0.000020  0.000054  0.000000
  0.000000  0.000000  0.000000

  0.000005  -0.000023  0.000000
  -0.000023  0.000059  0.000000
  0.000000  0.000000  0.000000

  0.000005  -0.000022  0.000000
  -0.000022  0.000063  0.000000
  0.000000  0.000000  0.000000

  0.000008  -0.000025  0.000000
  -0.000025  0.000067  0.000000
  0.000000  0.000000  0.000000

  0.000011  -0.000032  0.000000
  -0.000032  0.000072  0.000000
  0.000000  0.000000  0.000000

  0.000008  -0.000028  0.000000
  -0.000028  0.000067  0.000000
  0.000000  0.000000  0.000000

  0.000005  -0.000023  0.000000
  -0.000023  0.000067  0.000000
  0.000000  0.000000  0.000000

  0.000009  -0.000026  0.000000
  -0.000026  0.000068  0.000000
  0.000000  0.000000  0.000000

  0.000010  -0.000027  0.000000
  -0.000027  0.000066  0.000000
  0.000000  0.000000  0.000000

  -0.000001  -0.000014  0.000000
  -0.000014  0.000050  0.000000
  0.000000  0.000000  0.000000

  -0.000001  -0.000014  0.000000
  -0.000014  0.000051  0.000000
  0.000000  0.000000  0.000000

  0.000002  -0.000018  0.000000
  -0.000018  0.000059  0.000000
  0.000000  0.000000  0.000000

  0.000011  -0.000029  0.000000
  -0.000029  0.000072  0.000000
  0.000000  0.000000  0.000000

  0.000013  -0.000035  0.000000
  -0.000035  0.000077  0.000000
  0.000000  0.000000  0.000000

  0.000001  -0.000020  0.000000
  -0.000020  0.000053  0.000000
  0.000000  0.000000  0.000000

  -0.000002  -0.000014  0.000000
  -0.000014  0.000049  0.000000
  0.000000  0.000000  0.000000

  -0.000002  -0.000015  0.000000
  -0.000015  0.000044  0.000000
  0.000000  0.000000  0.000000

  -0.000006  -0.000009  0.000000
  -0.000009  0.000042  0.000000
  0.000000  0.000000  0.000000

  -0.000005  -0.000011  0.000000
  -0.000011  0.000046  0.000000
  0.000000  0.000000  0.000000

  -0.000002  -0.000014  0.000000
  -0.000014  0.000042  0.000000
  0.000000  0.000000  0.000000

  -0.000005  -0.000011  0.000000
  -0.000011  0.000037  0.000000
  0.000000  0.000000  0.000000

  -0.000004  -0.000013  0.000000
  -0.000013  0.000047  0.000000
  0.000000  0.000000  0.000000

  -0.000009  -0.000005  0.000000
  -0.000005  0.000034  0.000000
  0.000000  0.000000  0.000000

  -0.000008  -0.000006  0.000000
  -0.000006  0.000038  0.000000
  0.000000  0.000000  0.000000

  -0.000008  -0.000007  0.000000
  -0.000007  0.000029  0.000000
  0.000000  0.000000  0.000000

  -0.000004  -0.000012  0.000000
  -0.000012  0.000039  0.000000
  0.000000  0.000000  0.000000

  -0.000001  -0.000016  0.000000
  -0.000016  0.000047  0.000000
  0.000000  0.000000  0.000000

  -0.000004  -0.000011  0.000000
  -0.000011  0.000047  0.000000
  0.000000  0.000000  0.000000

  -0.000004  -0.000013  0.000000
  -0.000013  0.000044  0.000000
  0.000000  0.000000  0.000000

  -0.000001  -0.000016  0.000000
  -0.000016  0.000048  0.000000
  0.000000  0.000000  0.000000

  -0.000003  -0.000011  0.000000
  -0.000011  0.000047  0.000000
  0.000000  0.000000  0.000000

  -0.000007  -0.000008  0.000000
  -0.000008  0.000041  0.000000
  0.000000  0.000000  0.000000

  -0.000006  -0.000009  0.000000
  -0.000009  0.000035  0.000000
  0.000000  0.000000  0.000000

  -0.000003  -0.000013  0.000000
  -0.000013  0.000044  0.000000
  0.000000  0.000000  0.000000

  -0.000000  -0.000016  0.000000
  -0.000016  0.000049  0.000000
  0.000000  0.000000  0.000000

  -0.000009  -0.000003  0.000000
  -0.000003  0.000030  0.000000
  0.000000  0.000000  0.000000

  -0.000009  -0.000007  0.000000
  -0.000007  0.000040  0.000000
  0.000000  0.000000  0.000000

  -0.000005  -0.000007  0.000000
  -0.000007  0.000039  0.000000
  0.000000  0.000000  0.000000

  -0.000007  -0.000008  0.000000
  -0.000008  0.000033  0.000000
  0.000000  0.000000  0.000000

  -0.000011  -0.000002  0.000000
  -0.000002  0.000030  0.000000
  0.000000  0.000000  0.000000

  -0.000009  -0.000003  0.000000
  -0.000003  0.000023  0.000000
  0.000000  0.000000  0.000000

  -0.000014  0.000002  0.000000
  0.000002  0.000023  0.000000
  0.000000  0.000000  0.000000

  -0.000011  -0.000004  0.000000
  -0.000004  0.000030  0.000000
  0.000000  0.000000  0.000000

  -0.000005  -0.000008  0.000000
  -0.000008  0.000041  0.000000
  0.000000  0.000000  0.000000

  -0.000003  -0.000011  0.000000
  -0.000011  0.000049  0.000000
  0.000000  0.000000  0.000000

  -0.000001  -0.000015  0.000000
  -0.000015  0.000053  0.000000
  0.000000  0.000000  0.000000

  0.000003  -0.000021  0.000000
  -0.000021  0.000057  0.000000
  0.000000  0.000000  0.000000

  0.000001  -0.000015  0.000000
  -0.000015  0.000054  0.000000
  0.000000  0.000000  0.000000

  0.000003  -0.000019  0.000000
  -0.000019  0.000060  0.000000
  0.000000  0.000000  0.000000

  -0.000010  -0.000002  0.000000
  -0.000002  0.000020  0.000000
  0.000000  0.000000  0.000000

  -0.000011  0.000002  0.000000
  0.000002  0.000015  0.000000
  0.000000  0.000000  0.000000

  -0.000012  -0.000000  0.000000
  -0.000000  0.000026  0.000000
  0.000000  0.000000  0.000000

  -0.000006  -0.000010  0.000000
  -0.000010  0.000038  0.000000
  0.000000  0.000000  0.000000

  -0.000003  -0.000013  0.000000
  -0.000013  0.000045  0.000000
  0.000000  0.000000  0.000000

  0.000000  -0.000017  0.000000
  -0.000017  0.000052  0.000000
  0.000000  0.000000  0.000000

  -0.000002  -0.000012  0.000000
  -0.000012  0.000050  0.000000
  0.000000  0.000000  0.000000

  -0.000002  -0.000013  0.000000
  -0.000013  0.000047  0.000000
  0.000000  0.000000  0.000000

  0.000001  -0.000017  0.000000
  -0.000017  0.000053  0.000000
  0.000000  0.000000  0.000000

  -0.000005  -0.000008  0.000000
  -0.000008  0.000043  0.000000
  0.000000  0.000000  0.000000

  -0.000004  -0.000008  0.000000
  -0.000008  0.000045  0.000000
  0.000000  0.000000  0.000000

  -0.000001  -0.000013  0.000000
  -0.000013  0.000052  0.000000
  0.000000  0.000000  0.000000

  0.000000  -0.000016  0.000000
  -0.000016  0.000059  0.000000
  0.000000  0.000000  0.000000

  0.000003  -0.000021  0.000000
  -0.000021  0.000059  0.000000
  0.000000  0.000000  0.000000

  0.000004  -0.000020  0.000000
  -0.000020  0.000060  0.000000
  0.000000  0.000000  0.000000

  -0.000017  0.000007  0.000000
  0.000007  0.000014  0.000000
  0.000000  0.000000  0.000000

  -0.000015  0.000004  0.000000
  0.000004  0.000019  0.000000
  0.000000  0.000000  0.000000

  -0.000001  -0.000014  0.000000
  -0.000014  0.000048  0.000000
  0.000000  0.000000  0.000000

  -0.000015  0.000002  0.000000
  0.000002  0.000018  0.000000
  0.000000  0.000000  0.000000

  0.000002  -0.000020  0.000000
  -0.000020  0.000055  0.000000
  0.000000  0.000000  0.000000

  0.000002  -0.000018  0.000000
  -0.000018  0.000057  0.000000
  0.000000  0.000000  0.000000

  -0.000019  0.000009  0.000000
  0.000009  0.000006  0.000000
  0.000000  0.000000  0.000000

  -0.000017  0.000007  0.000000
  0.000007  -0.000000  0.000000
  0.000000  0.000000  0.000000

  -0.000022  0.000014  0.000000
  0.000014  -0.000004  0.000000
  0.000000  0.000000  0.000000

  -0.000021  0.000013  0.000000
  0.000013  -0.000000  0.000000
  0.000000  0.000000  0.000000

  -0.000019  0.000008  0.000000
  0.000008  -0.000003  0.000000
  0.000000  0.000000  0.000000

  -0.000020  0.000012  0.000000
  0.000012  -0.000010  0.000000
  0.000000  0.000000  0.000000

  -0.000019  0.000011  0.000000
  0.000011  -0.000007  0.000000
  0.000000  0.000000  0.000000

  -0.000016  0.000006  0.000000
  0.000006  0.000002  0.000000
  0.000000  0.000000  0.000000

  -0.000019  0.000011  0.000000
  0.000011  0.000003  0.000000
  0.000000  0.000000  0.000000

  -0.000018  0.000009  0.000000
  0.000009  -0.000003  0.000000
  0.000000  0.000000  0.000000

  -0.000015  0.000004  0.000000
  0.000004  0.000006  0.000000
  0.000000  0.000000  0.000000

  -0.000022  0.000016  0.000000
  0.000016  -0.000007  0.000000
  0.000000  0.000000  0.000000

  -0.000020  0.000014  0.000000
  0.000014  -0.000013  0.000000
  0.000000  0.000000  0.000000

  -0.000024  0.000021  0.000000
  0.000021  -0.000017  0.000000
  0.000000  0.000000  0.000000

  -0.000023  0.000019  0.000000
  0.000019  -0.000013  0.000000
  0.000000  0.000000  0.000000

  -0.000021  0.000016  0.000000
  0.000016  -0.000017  0.000000
  0.000000  0.000000  0.000000

  -0.000026  0.000023  0.000000
  0.000023  -0.000020  0.000000
  0.000000  0.000000  0.000000

  -0.000022  0.000019  0.000000
  0.000019  -0.000023  0.000000
  0.000000  0.000000  0.000000

  -0.000019  0.000012  0.000000
  0.000012  -0.000010  0.000000
  0.000000  0.000000  0.000000

  -0.000023  0.000021  0.000000
  0.000021  -0.000028  0.000000
  0.000000  0.000000  0.000000

  -0.000020  0.000017  0.000000
  0.000017  -0.000021  0.000000
  0.000000  0.000000  0.000000

  -0.000022  0.000017  0.000000
  0.000017  -0.000021  0.000000
  0.000000  0.000000  0.000000

  -0.000021  0.000014  0.000000
  0.000014  -0.000003  0.000000
  0.000000  0.000000  0.000000

  -0.000017  0.000008  0.000000
  0.000008  -0.000000  0.000000
  0.000000  0.000000  0.000000

  -0.000019  0.000013  0.000000
  0.000013  0.000000  0.000000
  0.000000  0.000000  0.000000

  -0.000018  0.000010  0.000000
  0.000010  0.000006  0.000000
  0.000000  0.000000  0.000000

  -0.000014  0.000003  0.000000
  0.000003  0.000009  0.000000
  0.000000  0.000000  0.000000

  -0.000017  0.000009  0.000000
  0.000009  0.000010  0.000000
  0.000000  0.000000  0.000000

  -0.000016  0.000005  0.000000
  0.000005  0.000015  0.000000
  0.000000  0.000000  0.000000

  -0.000018  0.000011  0.000000
  0.000011  -0.000006  0.000000
  0.000000  0.000000  0.000000

  -0.000016  0.000006  0.000000
  0.000006  0.000004  0.000000
  0.000000  0.000000  0.000000

  -0.000017  0.000007  0.000000
  0.000007  0.000012  0.000000
  0.000000  0.000000  0.000000

  -0.000014  0.000001  0.000000
  0.000001  0.000021  0.000000
  0.000000  0.000000  0.000000

  -0.000004  -0.000010  0.000000
  -0.000010  0.000041  0.000000
  0.000000  0.000000  0.000000

  0.000011  -0.000032  0.000000
  -0.000032  0.000070  0.000000
  0.000000  0.000000  0.000000

  0.000006  -0.000025  0.000000
  -0.000025  0.000065  0.000000
  0.000000  0.000000  0.000000

  0.000010  -0.000032  0.000000
  -0.000032  0.000069  0.000000
  0.000000  0.000000  0.000000

  -0.000028  0.000021  0.000000
  0.000021  -0.000015  0.000000
  0.000000  0.000000  0.000000

  -0.000018  0.000008  0.000000
  0.000008  0.000009  0.000000
  0.000000  0.000000  0.000000

  -0.000026  0.000010  0.000000
  0.000010  -0.000010  0.000000
  0.000000  0.000000  0.000000

  -0.000028  0.000012  0.000000
  0.000012  -0.000005  0.000000
  0.000000  0.000000  0.000000

  -0.000021  0.000004  0.000000
  0.000004  -0.000002  0.000000
  0.000000  0.000000  0.000000

  -0.000022  0.000005  0.000000
  0.000005  0.000003  0.000000
  0.000000  0.000000  0.000000

  -0.000016  -0.000002  0.000000
  -0.000002  0.000004  0.000000
  0.000000  0.000000  0.000000

  -0.000016  -0.000004  0.000000
  -0.000004  0.000007  0.000000
  0.000000  0.000000  0.000000

  -0.000018  -0.000000  0.000000
  -0.000000  0.000011  0.000000
  0.000000  0.000000  0.000000

  -0.000023  0.000007  0.000000
  0.000007  0.000003  0.000000
  0.000000  0.000000  0.000000

  -0.000018  -0.000002  0.000000
  -0.000002  0.000004  0.000000
  0.000000  0.000000  0.000000

  -0.000017  0.000000  0.000000
  0.000000  0.000008  0.000000
  0.000000  0.000000  0.000000

  -0.000024  0.000007  0.000000
  0.000007  0.000001  0.000000
  0.000000  0.000000  0.000000

  -0.000012  -0.000009  0.000000
  -0.000009  0.000014  0.000000
  0.000000  0.000000  0.000000

  -0.000012  -0.000007  0.000000
  -0.000007  0.000017  0.000000
  0.000000  0.000000  0.000000

  -0.000007  -0.000016  0.000000
  -0.000016  0.000023  0.000000
  0.000000  0.000000  0.000000

  -0.000006  -0.000015  0.000000
  -0.000015  0.000020  0.000000
  0.000000  0.000000  0.000000

  -0.000013  -0.000009  0.000000
  -0.000009  0.000013  0.000000
  0.000000  0.000000  0.000000

  -0.000018  -0.000001  0.000000
  -0.000001  0.000002  0.000000
  0.000000  0.000000  0.000000

  -0.000023  0.000005  0.000000
  0.000005  -0.000005  0.000000
  0.000000  0.000000  0.000000

  -0.000029  0.000015  0.000000
  0.000015  -0.000009  0.000000
  0.000000  0.000000  0.000000

  -0.000026  0.000006  0.000000
  0.000006  -0.000005  0.000000
  0.000000  0.000000  0.000000

  -0.000025  0.000008  0.000000
  0.000008  -0.000001  0.000000
  0.000000  0.000000  0.000000

  -0.000020  -0.000001  0.000000
  -0.000001  0.000002  0.000000
  0.000000  0.000000  0.000000

  -0.000030  0.000015  0.000000
  0.000015  -0.000011  0.000000
  0.000000  0.000000  0.000000

  -0.000017  0.000001  0.000000
  0.000001  0.000005  0.000000
  0.000000  0.000000  0.000000

  -0.000027  0.000008  0.000000
  0.000008  -0.000001  0.000000
  0.000000  0.000000  0.000000

  -0.000013  -0.000008  0.000000
  -0.000008  0.000011  0.000000
  0.000000  0.000000  0.000000

  -0.000014  -0.000009  0.000000
  -0.000009  0.000011  0.000000
  0.000000  0.000000  0.000000

  -0.000020  -0.000002  0.000000
  -0.000002  0.000004  0.000000
  0.000000  0.000000  0.000000

  -0.000026  0.000006  0.000000
  0.000006  -0.000007  0.000000
  0.000000  0.000000  0.000000

  -0.000031  0.000016  0.000000
  0.000016  -0.000012  0.000000
  0.000000  0.000000  0.000000

  -0.000013  -0.000006  0.000000
  -0.000006  0.000016  0.000000
  0.000000  0.000000  0.000000

  -0.000027  0.000006  0.000000
  0.000006  -0.000007  0.000000
  0.000000  0.000000  0.000000

  -0.000032  0.000014  0.000000
  0.000014  -0.000016  0.000000
  0.000000  0.000000  0.000000

  -0.000007  -0.000015  0.000000
  -0.000015  0.000020  0.000000
  0.000000  0.000000  0.000000

  -0.000012  -0.000006  0.000000
  -0.000006  0.000017  0.000000
  0.000000  0.000000  0.000000

  -0.000012  -0.000006  0.000000
  -0.000006  0.000014  0.000000
  0.000000  0.000000  0.000000

  -0.000038  0.000025  0.000000
  0.000025  -0.000022  0.000000
  0.000000  0.000000  0.000000

  -0.000004  -0.000013  0.000000
  -0.000013  0.000022  0.000000
  0.000000  0.000000  0.000000

  -0.000002  -0.000022  0.000000
  -0.000022  0.000029  0.000000
  0.000000  0.000000  0.000000

  -0.000001  -0.000022  0.000000
  -0.000022  0.000027  0.000000
  0.000000  0.000000  0.000000

  -0.000010  -0.000007  0.000000
  -0.000007  0.000018  0.000000
  0.000000  0.000000  0.000000

  -0.000005  -0.000016  0.000000
  -0.000016  0.000022  0.000000
  0.000000  0.000000  0.000000

  -0.000007  -0.000014  0.000000
  -0.000014  0.000031  0.000000
  0.000000  0.000000  0.000000

  -0.000000  -0.000023  0.000000
  -0.000023  0.000030  0.000000
  0.000000  0.000000  0.000000

  -0.000001  -0.000015  0.000000
  -0.000015  0.000022  0.000000
  0.000000  0.000000  0.000000

  -0.000003  -0.000014  0.000000
  -0.000014  0.000030  0.000000
  0.000000  0.000000  0.000000

  0.000000  -0.000023  0.000000
  -0.000023  0.000034  0.000000
  0.000000  0.000000  0.000000

  -0.000003  -0.000013  0.000000
  -0.000013  0.000022  0.000000
  0.000000  0.000000  0.000000

  -0.000004  -0.000022  0.000000
  -0.000022  0.000034  0.000000
  0.000000  0.000000  0.000000

  -0.000027  0.000009  0.000000
  0.000009  -0.000003  0.000000
  0.000000  0.000000  0.000000

  -0.000011  -0.000010  0.000000
  -0.000010  0.000014  0.000000
  0.000000  0.000000  0.000000

  -0.000031  0.000013  0.000000
  0.000013  -0.000015  0.000000
  0.000000  0.000000  0.000000

  -0.000036  0.000023  0.000000
  0.000023  -0.000019  0.000000
  0.000000  0.000000  0.000000

  -0.000018  0.000001  0.000000
  0.000001  0.000007  0.000000
  0.000000  0.000000  0.000000

  0.000000  -0.000019  0.000000
  -0.000019  0.000031  0.000000
  0.000000  0.000000  0.000000

  0.000002  -0.000019  0.000000
  -0.000019  0.000032  0.000000
  0.000000  0.000000  0.000000

  -0.000004  -0.000013  0.000000
  -0.000013  0.000022  0.000000
  0.000000  0.000000  0.000000

  -0.000032  0.000017  0.000000
  0.000017  -0.000013  0.000000
  0.000000  0.000000  0.000000

  -0.000034  0.000014  0.000000
  0.000014  -0.000017  0.000000
  0.000000  0.000000  0.000000

  -0.000054  0.000060  0.000000
  0.000060  -0.000079  0.000000
  0.000000  0.000000  0.000000

  -0.000011  -0.000007  0.000000
  -0.000007  0.000025  0.000000
  0.000000  0.000000  0.000000

  -0.000009  -0.000012  0.000000
  -0.000012  0.000020  0.000000
  0.000000  0.000000  0.000000

  0.000000  -0.000019  0.000000
  -0.000019  0.000046  0.000000
  0.000000  0.000000  0.000000

  0.000006  -0.000024  0.000000
  -0.000024  0.000061  0.000000
  0.000000  0.000000  0.000000

  0.000010  -0.000030  0.000000
  -0.000030  0.000061  0.000000
  0.000000  0.000000  0.000000

  -0.000013  0.000000  0.000000
  0.000000  0.000024  0.000000
  0.000000  0.000000  0.000000

  -0.000011  -0.000001  0.000000
  -0.000001  0.000018  0.000000
  0.000000  0.000000  0.000000

  -0.000015  0.000004  0.000000
  0.000004  0.000018  0.000000
  0.000000  0.000000  0.000000

  0.000019  -0.000038  0.000000
  -0.000038  0.000074  0.000000
  0.000000  0.000000  0.000000

  0.000016  -0.000039  0.000000
  -0.000039  0.000073  0.000000
  0.000000  0.000000  0.000000

  0.000011  -0.000033  0.000000
  -0.000033  0.000074  0.000000
  0.000000  0.000000  0.000000

  0.000018  -0.000037  0.000000
  -0.000037  0.000072  0.000000
  0.000000  0.000000  0.000000

  -0.000000  -0.000000  0.000000
  -0.000000  0.000026  0.000000
  0.000000  0.000000  0.000000

  -0.000002  0.000002  0.000000
  0.000002  0.000026  0.000000
  0.000000  0.000000  0.000000

  -0.000001  0.000002  0.000000
  0.000002  0.000023  0.000000
  0.000000  0.000000  0.000000

  -0.000003  0.000004  0.000000
  0.000004  0.000023  0.000000
  0.000000  0.000000  0.000000

  -0.000002  0.000002  0.000000
  0.000002  0.000025  0.000000
  0.000000  0.000000  0.000000

  -0.000002  0.000004  0.000000
  0.000004  0.000021  0.000000
  0.000000  0.000000  0.000000

  -0.000001  0.000004  0.000000
  0.000004  0.000020  0.000000
  0.000000  0.000000  0.000000

  -0.000001  0.000003  0.000000
  0.000003  0.000021  0.000000
  0.000000  0.000000  0.000000

  -0.000000  0.000000  0.000000
  0.000000  0.000024  0.000000
  0.000000  0.000000  0.000000

  -0.000001  0.000001  0.000000
  0.000001  0.000025  0.000000
  0.000000  0.000000  0.000000

  0.000001  -0.000009  0.000000
  -0.000009  0.000047  0.000000
  0.000000  0.000000  0.000000

  -0.000002  -0.000007  0.000000
  -0.000007  0.000048  0.000000
  0.000000  0.000000  0.000000

  -0.000000  -0.000006  0.000000
  -0.000006  0.000044  0.000000
  0.000000  0.000000  0.000000

  -0.000000  -0.000005  0.000000
  -0.000005  0.000042  0.000000
  0.000000  0.000000  0.000000

  0.000026  -0.000045  0.000000
  -0.000045  0.000075  0.000000
  0.000000  0.000000  0.000000

  0.000018  -0.000043  0.000000
  -0.000043  0.000077  0.000000
  0.000000  0.000000  0.000000

  0.000021  -0.000041  0.000000
  -0.000041  0.000068  0.000000
  0.000000  0.000000  0.000000

  0.000027  -0.000046  0.000000
  -0.000046  0.000077  0.000000
  0.000000  0.000000  0.000000

  0.000031  0.000003  0.000000
  0.000003  -0.000009  0.000000
  0.000000  0.000000  0.000000

  0.000001  -0.000007  0.000000
  -0.000007  0.000043  0.000000
  0.000000  0.000000  0.000000

  -0.000002  -0.000005  0.000000
  -0.000005  0.000044  0.000000
  0.000000  0.000000  0.000000

  -0.000001  -0.000005  0.000000
  -0.000005  0.000041  0.000000
  0.000000  0.000000  0.000000

  -0.000002  -0.000006  0.000000
  -0.000006  0.000046  0.000000
  0.000000  0.000000  0.000000

  -0.000003  -0.000003  0.000000
  -0.000003  0.000041  0.000000
  0.000000  0.000000  0.000000

  0.000001  -0.000008  0.000000
  -0.000008  0.000045  0.000000
  0.000000  0.000000  0.000000

  -0.000002  -0.000003  0.000000
  -0.000003  0.000038  0.000000
  0.000000  0.000000  0.000000

  -0.000002  -0.000002  0.000000
  -0.000002  0.000036  0.000000
  0.000000  0.000000  0.000000

  -0.000001  -0.000004  0.000000
  -0.000004  0.000039  0.000000
  0.000000  0.000000  0.000000

  -0.000005  -0.000001  0.000000
  -0.000001  0.000038  0.000000
  0.000000  0.000000  0.000000

  -0.000004  -0.000002  0.000000
  -0.000002  0.000040  0.000000
  0.000000  0.000000  0.000000

  -0.000002  -0.000001  0.000000
  -0.000001  0.000035  0.000000
  0.000000  0.000000  0.000000

  -0.000005  0.000000  0.000000
  0.000000  0.000036  0.000000
  0.000000  0.000000  0.000000

  -0.000004  -0.000002  0.000000
  -0.000002  0.000038  0.000000
  0.000000  0.000000  0.000000

  -0.000004  -0.000004  0.000000
  -0.000004  0.000043  0.000000
  0.000000  0.000000  0.000000

  -0.000002  -0.000003  0.000000
  -0.000003  0.000039  0.000000
  0.000000  0.000000  0.000000

  -0.000003  -0.000005  0.000000
  -0.000005  0.000045  0.000000
  0.000000  0.000000  0.000000

  -0.000005  -0.000002  0.000000
  -0.000002  0.000040  0.000000
  0.000000  0.000000  0.000000

  -0.000002  -0.000004  0.000000
  -0.000004  0.000041  0.000000
  0.000000  0.000000  0.000000

  -0.000003  -0.000006  0.000000
  -0.000006  0.000046  0.000000
  0.000000  0.000000  0.000000

  -0.000005  -0.000003  0.000000
  -0.000003  0.000041  0.000000
  0.000000  0.000000  0.000000

  -0.000003  -0.000001  0.000000
  -0.000001  0.000036  0.000000
  0.000000  0.000000  0.000000

  -0.000006  -0.000001  0.000000
  -0.000001  0.000036  0.000000
  0.000000  0.000000  0.000000

  -0.000003  -0.000001  0.000000
  -0.000001  0.000035  0.000000
  0.000000  0.000000  0.000000

  -0.000006  0.000000  0.000000
  0.000000  0.000035  0.000000
  0.000000  0.000000  0.000000

  -0.000005  0.000001  0.000000
  0.000001  0.000031  0.000000
  0.000000  0.000000  0.000000

  -0.000007  0.000002  0.000000
  0.000002  0.000031  0.000000
  0.000000  0.000000  0.000000

  -0.000006  0.000003  0.000000
  0.000003  0.000027  0.000000
  0.000000  0.000000  0.000000

  -0.000006  0.000004  0.000000
  0.000004  0.000026  0.000000
  0.000000  0.000000  0.000000

  -0.000004  0.000002  0.000000
  0.000002  0.000030  0.000000
  0.000000  0.000000  0.000000

  -0.000004  0.000001  0.000000
  0.000001  0.000032  0.000000
  0.000000  0.000000  0.000000

  -0.000007  0.000001  0.000000
  0.000001  0.000033  0.000000
  0.000000  0.000000  0.000000

  -0.000006  0.000003  0.000000
  0.000003  0.000028  0.000000
  0.000000  0.000000  0.000000

  -0.000007  0.000001  0.000000
  0.000001  0.000034  0.000000
  0.000000  0.000000  0.000000

  -0.000008  0.000003  0.000000
  0.000003  0.000028  0.000000
  0.000000  0.000000  0.000000

  -0.000008  0.000004  0.000000
  0.000004  0.000026  0.000000
  0.000000  0.000000  0.000000

  -0.000005  -0.000001  0.000000
  -0.000001  0.000037  0.000000
  0.000000  0.000000  0.000000

  -0.000008  0.000004  0.000000
  0.000004  0.000027  0.000000
  0.000000  0.000000  0.000000

  -0.000007  0.000003  0.000000
  0.000003  0.000030  0.000000
  0.000000  0.000000  0.000000

  -0.000006  0.000005  0.000000
  0.000005  0.000025  0.000000
  0.000000  0.000000  0.000000

  -0.000008  0.000005  0.000000
  0.000005  0.000025  0.000000
  0.000000  0.000000  0.000000

  -0.000007  0.000003  0.000000
  0.000003  0.000029  0.000000
  0.000000  0.000000  0.000000

  0.000000  -0.000007  0.000000
  -0.000007  0.000045  0.000000
  0.000000  0.000000  0.000000

  -0.000002  -0.000008  0.000000
  -0.000008  0.000049  0.000000
  0.000000  0.000000  0.000000

  -0.000001  -0.000009  0.000000
  -0.000009  0.000051  0.000000
  0.000000  0.000000  0.000000

  0.000002  -0.000009  0.000000
  -0.000009  0.000048  0.000000
  0.000000  0.000000  0.000000

  0.000002  -0.000010  0.000000
  -0.000010  0.000050  0.000000
  0.000000  0.000000  0.000000

  0.000001  -0.000014  0.000000
  -0.000014  0.000056  0.000000
  0.000000  0.000000  0.000000

  0.000001  -0.000009  0.000000
  -0.000009  0.000047  0.000000
  0.000000  0.000000  0.000000

  -0.000006  0.000001  0.000000
  0.000001  0.000034  0.000000
  0.000000  0.000000  0.000000

  -0.000004  0.000003  0.000000
  0.000003  0.000029  0.000000
  0.000000  0.000000  0.000000

  -0.000006  0.000002  0.000000
  0.000002  0.000032  0.000000
  0.000000  0.000000  0.000000

  -0.000004  0.000003  0.000000
  0.000003  0.000028  0.000000
  0.000000  0.000000  0.000000

  -0.000003  0.000001  0.000000
  0.000001  0.000032  0.000000
  0.000000  0.000000  0.000000

  -0.000007  0.000004  0.000000
  0.000004  0.000028  0.000000
  0.000000  0.000000  0.000000

  -0.000006  0.000002  0.000000
  0.000002  0.000031  0.000000
  0.000000  0.000000  0.000000

  -0.000005  0.000005  0.000000
  0.000005  0.000024  0.000000
  0.000000  0.000000  0.000000

  -0.000008  0.000006  0.000000
  0.000006  0.000025  0.000000
  0.000000  0.000000  0.000000

  -0.000006  0.000007  0.000000
  0.000007  0.000020  0.000000
  0.000000  0.000000  0.000000

  -0.000006  0.000007  0.000000
  0.000007  0.000020  0.000000
  0.000000  0.000000  0.000000

  -0.000009  0.000007  0.000000
  0.000007  0.000021  0.000000
  0.000000  0.000000  0.000000

  -0.000007  0.000008  0.000000
  0.000008  0.000016  0.000000
  0.000000  0.000000  0.000000

  -0.000007  0.000009  0.000000
  0.000009  0.000016  0.000000
  0.000000  0.000000  0.000000

  -0.000008  0.000008  0.000000
  0.000008  0.000020  0.000000
  0.000000  0.000000  0.000000

  -0.000007  0.000009  0.000000
  0.000009  0.000015  0.000000
  0.000000  0.000000  0.000000

  -0.000007  0.000006  0.000000
  0.000006  0.000024  0.000000
  0.000000  0.000000  0.000000

  -0.000009  0.000009  0.000000
  0.000009  0.000015  0.000000
  0.000000  0.000000  0.000000

  -0.000008  0.000008  0.000000
  0.000008  0.000019  0.000000
  0.000000  0.000000  0.000000

  -0.000005  0.000006  0.000000
  0.000006  0.000023  0.000000
  0.000000  0.000000  0.000000

  -0.000007  0.000005  0.000000
  0.000005  0.000027  0.000000
  0.000000  0.000000  0.000000

  -0.000005  0.000006  0.000000
  0.000006  0.000022  0.000000
  0.000000  0.000000  0.000000

  -0.000004  0.000004  0.000000
  0.000004  0.000027  0.000000
  0.000000  0.000000  0.000000

  -0.000006  0.000003  0.000000
  0.000003  0.000030  0.000000
  0.000000  0.000000  0.000000

  -0.000004  0.000004  0.000000
  0.000004  0.000025  0.000000
  0.000000  0.000000  0.000000

  -0.000003  0.000002  0.000000
  0.000002  0.000029  0.000000
  0.000000  0.000000  0.000000

  -0.000003  0.000002  0.000000
  0.000002  0.000031  0.000000
  0.000000  0.000000  0.000000

  -0.000010  0.000009  0.000000
  0.000009  0.000017  0.000000
  0.000000  0.000000  0.000000

  -0.000007  0.000007  0.000000
  0.000007  0.000023  0.000000
  0.000000  0.000000  0.000000

  -0.000006  0.000008  0.000000
  0.000008  0.000018  0.000000
  0.000000  0.000000  0.000000

  -0.000008  0.000009  0.000000
  0.000009  0.000019  0.000000
  0.000000  0.000000  0.000000

  -0.000007  0.000007  0.000000
  0.000007  0.000022  0.000000
  0.000000  0.000000  0.000000

  -0.000006  0.000008  0.000000
  0.000008  0.000019  0.000000
  0.000000  0.000000  0.000000

  -0.000006  0.000005  0.000000
  0.000005  0.000026  0.000000
  0.000000  0.000000  0.000000

  -0.000005  0.000007  0.000000
  0.000007  0.000021  0.000000
  0.000000  0.000000  0.000000

  -0.000006  0.000006  0.000000
  0.000006  0.000025  0.000000
  0.000000  0.000000  0.000000

  -0.000005  0.000007  0.000000
  0.000007  0.000020  0.000000
  0.000000  0.000000  0.000000

  -0.000004  0.000005  0.000000
  0.000005  0.000024  0.000000
  0.000000  0.000000  0.000000

  -0.000007  0.000010  0.000000
  0.000010  0.000015  0.000000
  0.000000  0.000000  0.000000

  -0.000008  0.000010  0.000000
  0.000010  0.000015  0.000000
  0.000000  0.000000  0.000000

  -0.000007  0.000011  0.000000
  0.000011  0.000011  0.000000
  0.000000  0.000000  0.000000

  -0.000007  0.000011  0.000000
  0.000011  0.000011  0.000000
  0.000000  0.000000  0.000000

  -0.000009  0.000011  0.000000
  0.000011  0.000011  0.000000
  0.000000  0.000000  0.000000

  -0.000008  0.000012  0.000000
  0.000012  0.000007  0.000000
  0.000000  0.000000  0.000000

  -0.000008  0.000013  0.000000
  0.000013  0.000007  0.000000
  0.000000  0.000000  0.000000

  -0.000006  0.000008  0.000000
  0.000008  0.000021  0.000000
  0.000000  0.000000  0.000000

  -0.000005  0.000003  0.000000
  0.000003  0.000029  0.000000
  0.000000  0.000000  0.000000

  -0.000003  0.000003  0.000000
  0.000003  0.000028  0.000000
  0.000000  0.000000  0.000000

  -0.000004  0.000002  0.000000
  0.000002  0.000032  0.000000
  0.000000  0.000000  0.000000

  -0.000004  0.000001  0.000000
  0.000001  0.000033  0.000000
  0.000000  0.000000  0.000000

  -0.000002  0.000001  0.000000
  0.000001  0.000032  0.000000
  0.000000  0.000000  0.000000

  -0.000003  -0.000001  0.000000
  -0.000001  0.000035  0.000000
  0.000000  0.000000  0.000000

  -0.000004  -0.000000  0.000000
  -0.000000  0.000036  0.000000
  0.000000  0.000000  0.000000

  -0.000001  -0.000003  0.000000
  -0.000003  0.000036  0.000000
  0.000000  0.000000  0.000000

  -0.000002  -0.000000  0.000000
  -0.000000  0.000035  0.000000
  0.000000  0.000000  0.000000

  -0.000009  0.000011  0.000000
  0.000011  0.000011  0.000000
  0.000000  0.000000  0.000000

  -0.000007  0.000013  0.000000
  0.000013  0.000007  0.000000
  0.000000  0.000000  0.000000

  -0.000009  0.000012  0.000000
  0.000012  0.000006  0.000000
  0.000000  0.000000  0.000000

  -0.000008  0.000011  0.000000
  0.000011  0.000010  0.000000
  0.000000  0.000000  0.000000

  -0.000009  0.000012  0.000000
  0.000012  0.000006  0.000000
  0.000000  0.000000  0.000000

  -0.000003  0.000003  0.000000
  0.000003  0.000027  0.000000
  0.000000  0.000000  0.000000

  -0.000002  0.000001  0.000000
  0.000001  0.000031  0.000000
  0.000000  0.000000  0.000000

  -0.000006  0.000010  0.000000
  0.000010  0.000014  0.000000
  0.000000  0.000000  0.000000

  -0.000006  0.000006  0.000000
  0.000006  0.000023  0.000000
  0.000000  0.000000  0.000000

  -0.000010  0.000011  0.000000
  0.000011  0.000011  0.000000
  0.000000  0.000000  0.000000

  -0.000009  0.000007  0.000000
  0.000007  0.000022  0.000000
  0.000000  0.000000  0.000000

  -0.000007  0.000006  0.000000
  0.000006  0.000021  0.000000
  0.000000  0.000000  0.000000

  -0.000007  0.000008  0.000000
  0.000008  0.000017  0.000000
  0.000000  0.000000  0.000000

  -0.000009  0.000006  0.000000
  0.000006  0.000022  0.000000
  0.000000  0.000000  0.000000

  -0.000010  0.000008  0.000000
  0.000008  0.000017  0.000000
  0.000000  0.000000  0.000000

  -0.000008  0.000008  0.000000
  0.000008  0.000018  0.000000
  0.000000  0.000000  0.000000

  -0.000009  0.000006  0.000000
  0.000006  0.000023  0.000000
  0.000000  0.000000  0.000000

  -0.000007  0.000005  0.000000
  0.000005  0.000023  0.000000
  0.000000  0.000000  0.000000

  -0.000008  0.000007  0.000000
  0.000007  0.000018  0.000000
  0.000000  0.000000  0.000000

  -0.000010  0.000008  0.000000
  0.000008  0.000018  0.000000
  0.000000  0.000000  0.000000

  -0.000009  0.000010  0.000000
  0.000010  0.000013  0.000000
  0.000000  0.000000  0.000000

  -0.000011  0.000010  0.000000
  0.000010  0.000013  0.000000
  0.000000  0.000000  0.000000

  -0.000009  0.000011  0.000000
  0.000011  0.000008  0.000000
  0.000000  0.000000  0.000000

  -0.000009  0.000012  0.000000
  0.000012  0.000007  0.000000
  0.000000  0.000000  0.000000

  -0.000008  0.000010  0.000000
  0.000010  0.000012  0.000000
  0.000000  0.000000  0.000000

  -0.000010  0.000010  0.000000
  0.000010  0.000012  0.000000
  0.000000  0.000000  0.000000

  -0.000009  0.000012  0.000000
  0.000012  0.000007  0.000000
  0.000000  0.000000  0.000000

  -0.000011  0.000012  0.000000
  0.000012  0.000007  0.000000
  0.000000  0.000000  0.000000

  -0.000010  0.000010  0.000000
  0.000010  0.000012  0.000000
  0.000000  0.000000  0.000000

  -0.000008  0.000012  0.000000
  0.000012  0.000007  0.000000
  0.000000  0.000000  0.000000

  -0.000010  0.000012  0.000000
  0.000012  0.000007  0.000000
  0.000000  0.000000  0.000000

  -0.000009  0.000014  0.000000
  0.000014  0.000002  0.000000
  0.000000  0.000000  0.000000

  -0.000009  0.000014  0.000000
  0.000014  0.000002  0.000000
  0.000000  0.000000  0.000000

  -0.000011  0.000013  0.000000
  0.000013  0.000002  0.000000
  0.000000  0.000000  0.000000

  -0.000010  0.000015  0.000000
  0.000015  -0.000003  0.000000
  0.000000  0.000000  0.000000

  -0.000009  0.000015  0.000000
  0.000015  -0.000003  0.000000
  0.000000  0.000000  0.000000

  -0.000010  0.000005  0.000000
  0.000005  0.000024  0.000000
  0.000000  0.000000  0.000000

  -0.000009  0.000013  0.000000
  0.000013  0.000002  0.000000
  0.000000  0.000000  0.000000

  -0.000010  0.000012  0.000000
  0.000012  0.000007  0.000000
  0.000000  0.000000  0.000000

  -0.000008  0.000014  0.000000
  0.000014  0.000002  0.000000
  0.000000  0.000000  0.000000

  -0.000011  0.000014  0.000000
  0.000014  -0.000003  0.000000
  0.000000  0.000000  0.000000

  -0.000011  0.000007  0.000000
  0.000007  0.000019  0.000000
  0.000000  0.000000  0.000000

  -0.000010  0.000013  0.000000
  0.000013  0.000002  0.000000
  0.000000  0.000000  0.000000

  -0.000009  0.000015  0.000000
  0.000015  -0.000002  0.000000
  0.000000  0.000000  0.000000

  -0.000010  0.000014  0.000000
  0.000014  -0.000003  0.000000
  0.000000  0.000000  0.000000

  -0.000010  0.000013  0.000000
  0.000013  0.000002  0.000000
  0.000000  0.000000  0.000000

  -0.000008  0.000015  0.000000
  0.000015  -0.000002  0.000000
  0.000000  0.000000  0.000000

  -0.000010  0.000014  0.000000
  0.000014  -0.000002  0.000000
  0.000000  0.000000  0.000000

  -0.000009  0.000013  0.000000
  0.000013  0.000002  0.000000
  0.000000  0.000000  0.000000

  -0.000008  0.000014  0.000000
  0.000014  0.000002  0.000000
  0.000000  0.000000  0.000000

  -0.000011  0.000013  0.000000
  0.000013  0.000002  0.000000
  0.000000  0.000000  0.000000

  -0.000010  0.000015  0.000000
  0.000015  -0.000003  0.000000
  0.000000  0.000000  0.000000

  -0.000012  0.000013  0.000000
  0.000013  0.000002  0.000000
  0.000000  0.000000  0.000000

  -0.000012  0.000014  0.000000
  0.000014  -0.000003  0.000000
  0.000000  0.000000  0.000000

  -0.000006  0.000009  0.000000
  0.000009  0.000017  0.000000
  0.000000  0.000000  0.000000

  -0.000007  0.000009  0.000000
  0.000009  0.000018  0.000000
  0.000000  0.000000  0.000000

  -0.000006  0.000010  0.000000
  0.000010  0.000014  0.000000
  0.000000  0.000000  0.000000

  -0.000008  0.000010  0.000000
  0.000010  0.000014  0.000000
  0.000000  0.000000  0.000000

  -0.000007  0.000012  0.000000
  0.000012  0.000010  0.000000
  0.000000  0.000000  0.000000

  -0.000008  0.000010  0.000000
  0.000010  0.000014  0.000000
  0.000000  0.000000  0.000000

  -0.000006  0.000012  0.000000
  0.000012  0.000010  0.000000
  0.000000  0.000000  0.000000

  -0.000008  0.000012  0.000000
  0.000012  0.000010  0.000000
  0.000000  0.000000  0.000000

  -0.000007  0.000011  0.000000
  0.000011  0.000013  0.000000
  0.000000  0.000000  0.000000

  -0.000007  0.000013  0.000000
  0.000013  0.000006  0.000000
  0.000000  0.000000  0.000000

  -0.000008  0.000013  0.000000
  0.000013  0.000006  0.000000
  0.000000  0.000000  0.000000

  -0.000008  0.000014  0.000000
  0.000014  0.000002  0.000000
  0.000000  0.000000  0.000000

  -0.000007  0.000014  0.000000
  0.000014  0.000003  0.000000
  0.000000  0.000000  0.000000

  -0.000009  0.000013  0.000000
  0.000013  0.000002  0.000000
  0.000000  0.000000  0.000000

  -0.000008  0.000015  0.000000
  0.000015  -0.000002  0.000000
  0.000000  0.000000  0.000000

  -0.000008  0.000015  0.000000
  0.000015  -0.000001  0.000000
  0.000000  0.000000  0.000000

  -0.000009  0.000014  0.000000
  0.000014  -0.000002  0.000000
  0.000000  0.000000  0.000000

  -0.000008  0.000016  0.000000
  0.000016  -0.000007  0.000000
  0.000000  0.000000  0.000000

  -0.000008  0.000016  0.000000
  0.000016  -0.000006  0.000000
  0.000000  0.000000  0.000000

  -0.000009  0.000015  0.000000
  0.000015  -0.000007  0.000000
  0.000000  0.000000  0.000000

  -0.000006  0.000013  0.000000
  0.000013  0.000006  0.000000
  0.000000  0.000000  0.000000

  -0.000006  0.000011  0.000000
  0.000011  0.000013  0.000000
  0.000000  0.000000  0.000000

  -0.000008  0.000013  0.000000
  0.000013  0.000006  0.000000
  0.000000  0.000000  0.000000

  -0.000007  0.000014  0.000000
  0.000014  0.000003  0.000000
  0.000000  0.000000  0.000000

  -0.000008  0.000014  0.000000
  0.000014  0.000003  0.000000
  0.000000  0.000000  0.000000

  -0.000007  0.000013  0.000000
  0.000013  0.000006  0.000000
  0.000000  0.000000  0.000000

  -0.000008  0.000013  0.000000
  0.000013  0.000002  0.000000
  0.000000  0.000000  0.000000

  -0.000007  0.000015  0.000000
  0.000015  -0.000001  0.000000
  0.000000  0.000000  0.000000

  -0.000008  0.000014  0.000000
  0.000014  -0.000001  0.000000
  0.000000  0.000000  0.000000

  -0.000007  0.000016  0.000000
  0.000016  -0.000005  0.000000
  0.000000  0.000000  0.000000

  -0.000007  0.000016  0.000000
  0.000016  -0.000005  0.000000
  0.000000  0.000000  0.000000

  -0.000008  0.000015  0.000000
  0.000015  -0.000006  0.000000
  0.000000  0.000000  0.000000

  -0.000007  0.000016  0.000000
  0.000016  -0.000010  0.000000
  0.000000  0.000000  0.000000

  -0.000007  0.000016  0.000000
  0.000016  -0.000009  0.000000
  0.000000  0.000000  0.000000

  -0.000008  0.000014  0.000000
  0.000014  -0.000002  0.000000
  0.000000  0.000000  0.000000

  -0.000009  0.000015  0.000000
  0.000015  -0.000006  0.000000
  0.000000  0.000000  0.000000

  -0.000008  0.000016  0.000000
  0.000016  -0.000011  0.000000
  0.000000  0.000000  0.000000

  -0.000009  0.000015  0.000000
  0.000015  -0.000011  0.000000
  0.000000  0.000000  0.000000

  -0.000008  0.000017  0.000000
  0.000017  -0.000016  0.000000
  0.000000  0.000000  0.000000

  -0.000008  0.000017  0.000000
  0.000017  -0.000014  0.000000
  0.000000  0.000000  0.000000

  -0.000008  0.000015  0.000000
  0.000015  -0.000010  0.000000
  0.000000  0.000000  0.000000

  -0.000007  0.000016  0.000000
  0.000016  -0.000013  0.000000
  0.000000  0.000000  0.000000

  -0.000008  0.000015  0.000000
  0.000015  -0.000014  0.000000
  0.000000  0.000000  0.000000

  -0.000008  0.000015  0.000000
  0.000015  -0.000009  0.000000
  0.000000  0.000000  0.000000

  -0.000007  0.000016  0.000000
  0.000016  -0.000012  0.000000
  0.000000  0.000000  0.000000

  -0.000007  0.000015  0.000000
  0.000015  -0.000013  0.000000
  0.000000  0.000000  0.000000

  -0.000007  0.000015  0.000000
  0.000015  -0.000008  0.000000
  0.000000  0.000000  0.000000

  -0.000008  0.000015  0.000000
  0.000015  -0.000005  0.000000
  0.000000  0.000000  0.000000

  -0.000007  0.000016  0.000000
  0.000016  -0.000008  0.000000
  0.000000  0.000000  0.000000

  -0.000007  0.000014  0.000000
  0.000014  -0.000004  0.000000
  0.000000  0.000000  0.000000

  -0.000006  0.000016  0.000000
  0.000016  -0.000006  0.000000
  0.000000  0.000000  0.000000

  -0.000007  0.000016  0.000000
  0.000016  -0.000003  0.000000
  0.000000  0.000000  0.000000

  -0.000007  0.000016  0.000000
  0.000016  -0.000018  0.000000
  0.000000  0.000000  0.000000

  -0.000007  0.000016  0.000000
  0.000016  -0.000017  0.000000
  0.000000  0.000000  0.000000

  -0.000007  0.000015  0.000000
  0.000015  -0.000001  0.000000
  0.000000  0.000000  0.000000

  -0.000007  0.000014  0.000000
  0.000014  0.000003  0.000000
  0.000000  0.000000  0.000000

  -0.000007  0.000014  0.000000
  0.000014  -0.000001  0.000000
  0.000000  0.000000  0.000000

  -0.000006  0.000015  0.000000
  0.000015  -0.000001  0.000000
  0.000000  0.000000  0.000000

  -0.000006  0.000014  0.000000
  0.000014  0.000003  0.000000
  0.000000  0.000000  0.000000

  -0.000007  0.000014  0.000000
  0.000014  -0.000001  0.000000
  0.000000  0.000000  0.000000

  -0.000006  0.000016  0.000000
  0.000016  -0.000003  0.000000
  0.000000  0.000000  0.000000

  -0.000007  0.000015  0.000000
  0.000015  -0.000003  0.000000
  0.000000  0.000000  0.000000

  -0.000006  0.000016  0.000000
  0.000016  -0.000006  0.000000
  0.000000  0.000000  0.000000

  -0.000006  0.000014  0.000000
  0.000014  -0.000001  0.000000
  0.000000  0.000000  0.000000

  -0.000006  0.000015  0.000000
  0.000015  -0.000006  0.000000
  0.000000  0.000000  0.000000

  -0.000006  0.000015  0.000000
  0.000015  -0.000003  0.000000
  0.000000  0.000000  0.000000

  -0.000006  0.000016  0.000000
  0.000016  -0.000002  0.000000
  0.000000  0.000000  0.000000

  -0.000006  0.000014  0.000000
  0.000014  0.000000  0.000000
  0.000000  0.000000  0.000000

  -0.000005  0.000016  0.000000
  0.000016  -0.000001  0.000000
  0.000000  0.000000  0.000000

  -0.000006  0.000015  0.000000
  0.000015  0.000002  0.000000
  0.000000  0.000000  0.000000

  -0.000006  0.000015  0.000000
  0.000015  0.000000  0.000000
  0.000000  0.000000  0.000000

  -0.000006  0.000016  0.000000
  0.000016  -0.000010  0.000000
  0.000000  0.000000  0.000000

  -0.000005  0.000016  0.000000
  0.000016  -0.000008  0.000000
  0.000000  0.000000  0.000000

  -0.000006  0.000016  0.000000
  0.000016  -0.000004  0.000000
  0.000000  0.000000  0.000000

  -0.000007  0.000014  0.000000
  0.000014  0.000003  0.000000
  0.000000  0.000000  0.000000

  -0.000006  0.000014  0.000000
  0.000014  0.000003  0.000000
  0.000000  0.000000  0.000000

  -0.000007  0.000014  0.000000
  0.000014  0.000006  0.000000
  0.000000  0.000000  0.000000

  -0.000007  0.000013  0.000000
  0.000013  0.000006  0.000000
  0.000000  0.000000  0.000000

  -0.000006  0.000013  0.000000
  0.000013  0.000006  0.000000
  0.000000  0.000000  0.000000

  -0.000005  0.000014  0.000000
  0.000014  0.000003  0.000000
  0.000000  0.000000  0.000000

  -0.000006  0.000014  0.000000
  0.000014  0.000006  0.000000
  0.000000  0.000000  0.000000

  -0.000005  0.000014  0.000000
  0.000014  0.000003  0.000000
  0.000000  0.000000  0.000000

  -0.000005  0.000014  0.000000
  0.000014  0.000006  0.000000
  0.000000  0.000000  0.000000

  -0.000006  0.000013  0.000000
  0.000013  0.000009  0.000000
  0.000000  0.000000  0.000000

  -0.000007  0.000012  0.000000
  0.000012  0.000009  0.000000
  0.000000  0.000000  0.000000

  -0.000006  0.000014  0.000000
  0.000014  0.000003  0.000000
  0.000000  0.000000  0.000000

  -0.000005  0.000013  0.000000
  0.000013  0.000006  0.000000
  0.000000  0.000000  0.000000

  -0.000006  0.000013  0.000000
  0.000013  0.000008  0.000000
  0.000000  0.000000  0.000000

  -0.000005  0.000013  0.000000
  0.000013  0.000008  0.000000
  0.000000  0.000000  0.000000

  -0.000005  0.000012  0.000000
  0.000012  0.000011  0.000000
  0.000000  0.000000  0.000000

  -0.000006  0.000011  0.000000
  0.000011  0.000011  0.000000
  0.000000  0.000000  0.000000

  -0.000005  0.000013  0.000000
  0.000013  0.000008  0.000000
  0.000000  0.000000  0.000000

  -0.000004  0.000013  0.000000
  0.000013  0.000008  0.000000
  0.000000  0.000000  0.000000

  -0.000005  0.000012  0.000000
  0.000012  0.000010  0.000000
  0.000000  0.000000  0.000000

  -0.000004  0.000013  0.000000
  0.000013  0.000007  0.000000
  0.000000  0.000000  0.000000

  -0.000004  0.000012  0.000000
  0.000012  0.000010  0.000000
  0.000000  0.000000  0.000000

  -0.000004  0.000011  0.000000
  0.000011  0.000011  0.000000
  0.000000  0.000000  0.000000

  -0.000005  0.000012  0.000000
  0.000012  0.000011  0.000000
  0.000000  0.000000  0.000000

  -0.000005  0.000013  0.000000
  0.000013  0.000009  0.000000
  0.000000  0.000000  0.000000

  -0.000006  0.000011  0.000000
  0.000011  0.000012  0.000000
  0.000000  0.000000  0.000000

  -0.000005  0.000011  0.000000
  0.000011  0.000012  0.000000
  0.000000  0.000000  0.000000

  -0.000006  0.000012  0.000000
  0.000012  0.000009  0.000000
  0.000000  0.000000  0.000000

  -0.000005  0.000010  0.000000
  0.000010  0.000015  0.000000
  0.000000  0.000000  0.000000

  -0.000005  0.000010  0.000000
  0.000010  0.000014  0.000000
  0.000000  0.000000  0.000000

  -0.000006  0.000010  0.000000
  0.000010  0.000015  0.000000
  0.000000  0.000000  0.000000

  -0.000007  0.000011  0.000000
  0.000011  0.000013  0.000000
  0.000000  0.000000  0.000000

  -0.000006  0.000011  0.000000
  0.000011  0.000012  0.000000
  0.000000  0.000000  0.000000

  -0.000006  0.000010  0.000000
  0.000010  0.000016  0.000000
  0.000000  0.000000  0.000000

  -0.000005  0.000009  0.000000
  0.000009  0.000017  0.000000
  0.000000  0.000000  0.000000

  -0.000005  0.000008  0.000000
  0.000008  0.000018  0.000000
  0.000000  0.000000  0.000000

  -0.000006  0.000012  0.000000
  0.000012  0.000010  0.000000
  0.000000  0.000000  0.000000

  -0.000005  0.000009  0.000000
  0.000009  0.000016  0.000000
  0.000000  0.000000  0.000000

  -0.000007  0.000012  0.000000
  0.000012  0.000010  0.000000
  0.000000  0.000000  0.000000

  -0.000006  0.000009  0.000000
  0.000009  0.000019  0.000000
  0.000000  0.000000  0.000000

  -0.000005  0.000010  0.000000
  0.000010  0.000015  0.000000
  0.000000  0.000000  0.000000

  -0.000004  0.000007  0.000000
  0.000007  0.000019  0.000000
  0.000000  0.000000  0.000000

  -0.000006  0.000008  0.000000
  0.000008  0.000020  0.000000
  0.000000  0.000000  0.000000

  -0.000005  0.000009  0.000000
  0.000009  0.000018  0.000000
  0.000000  0.000000  0.000000

  -0.000006  0.000007  0.000000
  0.000007  0.000023  0.000000
  0.000000  0.000000  0.000000

  -0.000005  0.000009  0.000000
  0.000009  0.000017  0.000000
  0.000000  0.000000  0.000000

  -0.000006  0.000013  0.000000
  0.000013  0.000006  0.000000
  0.000000  0.000000  0.000000

  -0.000004  0.000008  0.000000
  0.000008  0.000020  0.000000
  0.000000  0.000000  0.000000

  -0.000007  0.000009  0.000000
  0.000009  0.000017  0.000000
  0.000000  0.000000  0.000000

  -0.000004  0.000010  0.000000
  0.000010  0.000014  0.000000
  0.000000  0.000000  0.000000

  -0.000004  0.000009  0.000000
  0.000009  0.000016  0.000000
  0.000000  0.000000  0.000000

  -0.000004  0.000009  0.000000
  0.000009  0.000017  0.000000
  0.000000  0.000000  0.000000

  -0.000004  0.000012  0.000000
  0.000012  0.000010  0.000000
  0.000000  0.000000  0.000000

  -0.000005  0.000011  0.000000
  0.000011  0.000013  0.000000
  0.000000  0.000000  0.000000

  -0.000004  0.000010  0.000000
  0.000010  0.000013  0.000000
  0.000000  0.000000  0.000000

  -0.000004  0.000009  0.000000
  0.000009  0.000015  0.000000
  0.000000  0.000000  0.000000

  -0.000005  0.000013  0.000000
  0.000013  0.000008  0.000000
  0.000000  0.000000  0.000000

  -0.000004  0.000011  0.000000
  0.000011  0.000012  0.000000
  0.000000  0.000000  0.000000

  -0.000004  0.000009  0.000000
  0.000009  0.000016  0.000000
  0.000000  0.000000  0.000000

  -0.000006  0.000015  0.000000
  0.000015  -0.000002  0.000000
  0.000000  0.000000  0.000000

  -0.000005  0.000016  0.000000
  0.000016  -0.000003  0.000000
  0.000000  0.000000  0.000000

  -0.000005  0.000015  0.000000
  0.000015  -0.000004  0.000000
  0.000000  0.000000  0.000000

  -0.000005  0.000015  0.000000
  0.000015  -0.000001  0.000000
  0.000000  0.000000  0.000000

  -0.000006  0.000015  0.000000
  0.000015  0.000002  0.000000
  0.000000  0.000000  0.000000

  -0.000009  0.000015  0.000000
  0.000015  -0.000012  0.000000
  0.000000  0.000000  0.000000

  -0.000006  0.000016  0.000000
  0.000016  -0.000010  0.000000
  0.000000  0.000000  0.000000

  -0.000006  0.000014  0.000000
  0.000014  -0.000012  0.000000
  0.000000  0.000000  0.000000

  -0.000007  0.000015  0.000000
  0.000015  -0.000007  0.000000
  0.000000  0.000000  0.000000

  -0.000006  0.000016  0.000000
  0.000016  -0.000015  0.000000
  0.000000  0.000000  0.000000

  -0.000006  0.000014  0.000000
  0.000014  -0.000010  0.000000
  0.000000  0.000000  0.000000

  -0.000008  0.000015  0.000000
  0.000015  -0.000015  0.000000
  0.000000  0.000000  0.000000

  -0.000008  0.000017  0.000000
  0.000017  -0.000020  0.000000
  0.000000  0.000000  0.000000

  -0.000009  0.000015  0.000000
  0.000015  -0.000017  0.000000
  0.000000  0.000000  0.000000

  -0.000008  0.000015  0.000000
  0.000015  -0.000021  0.000000
  0.000000  0.000000  0.000000

  -0.000008  0.000017  0.000000
  0.000017  -0.000021  0.000000
  0.000000  0.000000  0.000000

  -0.000009  0.000016  0.000000
  0.000016  -0.000018  0.000000
  0.000000  0.000000  0.000000

  -0.000008  0.000015  0.000000
  0.000015  -0.000023  0.000000
  0.000000  0.000000  0.000000

  -0.000008  0.000017  0.000000
  0.000017  -0.000025  0.000000
  0.000000  0.000000  0.000000

  -0.000008  0.000015  0.000000
  0.000015  -0.000027  0.000000
  0.000000  0.000000  0.000000

  -0.000007  0.000017  0.000000
  0.000017  -0.000023  0.000000
  0.000000  0.000000  0.000000

  -0.000009  0.000017  0.000000
  0.000017  -0.000017  0.000000
  0.000000  0.000000  0.000000

  -0.000010  0.000015  0.000000
  0.000015  -0.000013  0.000000
  0.000000  0.000000  0.000000

  -0.000009  0.000017  0.000000
  0.000017  -0.000013  0.000000
  0.000000  0.000000  0.000000

  -0.000009  0.000018  0.000000
  0.000018  -0.000018  0.000000
  0.000000  0.000000  0.000000

  -0.000008  0.000018  0.000000
  0.000018  -0.000028  0.000000
  0.000000  0.000000  0.000000

  -0.000007  0.000017  0.000000
  0.000017  -0.000029  0.000000
  0.000000  0.000000  0.000000

  -0.000009  0.000018  0.000000
  0.000018  -0.000023  0.000000
  0.000000  0.000000  0.000000

  -0.000007  0.000017  0.000000
  0.000017  -0.000032  0.000000
  0.000000  0.000000  0.000000

  -0.000011  0.000016  0.000000
  0.000016  -0.000014  0.000000
  0.000000  0.000000  0.000000

  -0.000010  0.000016  0.000000
  0.000016  -0.000019  0.000000
  0.000000  0.000000  0.000000

  -0.000009  0.000018  0.000000
  0.000018  -0.000024  0.000000
  0.000000  0.000000  0.000000

  -0.000011  0.000016  0.000000
  0.000016  -0.000020  0.000000
  0.000000  0.000000  0.000000

  -0.000010  0.000016  0.000000
  0.000016  -0.000026  0.000000
  0.000000  0.000000  0.000000

  -0.000005  0.000014  0.000000
  0.000014  0.000005  0.000000
  0.000000  0.000000  0.000000

  -0.000006  0.000014  0.000000
  0.000014  0.000005  0.000000
  0.000000  0.000000  0.000000

  -0.000005  0.000015  0.000000
  0.000015  0.000002  0.000000
  0.000000  0.000000  0.000000

  -0.000005  0.000010  0.000000
  0.000010  0.000014  0.000000
  0.000000  0.000000  0.000000

  -0.000006  0.000014  0.000000
  0.000014  -0.000005  0.000000
  0.000000  0.000000  0.000000

  -0.000011  0.000014  0.000000
  0.000014  -0.000003  0.000000
  0.000000  0.000000  0.000000

  -0.000006  0.000014  0.000000
  0.000014  -0.000009  0.000000
  0.000000  0.000000  0.000000

  -0.000009  0.000009  0.000000
  0.000009  0.000016  0.000000
  0.000000  0.000000  0.000000

  -0.000008  0.000011  0.000000
  0.000011  0.000012  0.000000
  0.000000  0.000000  0.000000

  -0.000008  0.000011  0.000000
  0.000011  0.000011  0.000000
  0.000000  0.000000  0.000000

  -0.000005  0.000004  0.000000
  0.000004  0.000028  0.000000
  0.000000  0.000000  0.000000

  -0.000004  0.000005  0.000000
  0.000005  0.000023  0.000000
  0.000000  0.000000  0.000000

  -0.000004  0.000004  0.000000
  0.000004  0.000027  0.000000
  0.000000  0.000000  0.000000

  -0.000001  -0.000011  0.000000
  -0.000011  0.000052  0.000000
  0.000000  0.000000  0.000000

  -0.000012  0.000011  0.000000
  0.000011  0.000008  0.000000
  0.000000  0.000000  0.000000

  -0.000010  0.000013  0.000000
  0.000013  0.000003  0.000000
  0.000000  0.000000  0.000000

  -0.000010  0.000013  0.000000
  0.000013  0.000002  0.000000
  0.000000  0.000000  0.000000

  -0.000012  0.000011  0.000000
  0.000011  0.000008  0.000000
  0.000000  0.000000  0.000000

  -0.000012  0.000012  0.000000
  0.000012  0.000002  0.000000
  0.000000  0.000000  0.000000

  -0.000011  0.000011  0.000000
  0.000011  0.000007  0.000000
  0.000000  0.000000  0.000000

  -0.000010  0.000011  0.000000
  0.000011  0.000008  0.000000
  0.000000  0.000000  0.000000

  -0.000011  0.000009  0.000000
  0.000009  0.000014  0.000000
  0.000000  0.000000  0.000000

  -0.000009  0.000009  0.000000
  0.000009  0.000014  0.000000
  0.000000  0.000000  0.000000

  -0.000010  0.000011  0.000000
  0.000011  0.000008  0.000000
  0.000000  0.000000  0.000000

  -0.000011  0.000013  0.000000
  0.000013  0.000003  0.000000
  0.000000  0.000000  0.000000

  -0.000011  0.000015  0.000000
  0.000015  -0.000003  0.000000
  0.000000  0.000000  0.000000

  -0.000011  0.000015  0.000000
  0.000015  -0.000003  0.000000
  0.000000  0.000000  0.000000

  -0.000012  0.000014  0.000000
  0.000014  -0.000003  0.000000
  0.000000  0.000000  0.000000

  -0.000011  0.000016  0.000000
  0.000016  -0.000009  0.000000
  0.000000  0.000000  0.000000

  -0.000011  0.000016  0.000000
  0.000016  -0.000009  0.000000
  0.000000  0.000000  0.000000

  -0.000012  0.000015  0.000000
  0.000015  -0.000009  0.000000
  0.000000  0.000000  0.000000

  -0.000011  0.000017  0.000000
  0.000017  -0.000015  0.000000
  0.000000  0.000000  0.000000

  -0.000011  0.000017  0.000000
  0.000017  -0.000014  0.000000
  0.000000  0.000000  0.000000

  -0.000013  0.000014  0.000000
  0.000014  -0.000004  0.000000
  0.000000  0.000000  0.000000

  -0.000012  0.000016  0.000000
  0.000016  -0.000009  0.000000
  0.000000  0.000000  0.000000

  -0.000013  0.000014  0.000000
  0.000014  -0.000003  0.000000
  0.000000  0.000000  0.000000

  -0.000013  0.000015  0.000000
  0.000015  -0.000010  0.000000
  0.000000  0.000000  0.000000

  -0.000013  0.000015  0.000000
  0.000015  -0.000009  0.000000
  0.000000  0.000000  0.000000

  -0.000012  0.000018  0.000000
  0.000018  -0.000015  0.000000
  0.000000  0.000000  0.000000

  -0.000013  0.000016  0.000000
  0.000016  -0.000016  0.000000
  0.000000  0.000000  0.000000

  -0.000012  0.000019  0.000000
  0.000019  -0.000022  0.000000
  0.000000  0.000000  0.000000

  -0.000011  0.000019  0.000000
  0.000019  -0.000021  0.000000
  0.000000  0.000000  0.000000

  -0.000011  0.000015  0.000000
  0.000015  -0.000003  0.000000
  0.000000  0.000000  0.000000

  -0.000013  0.000012  0.000000
  0.000012  0.000003  0.000000
  0.000000  0.000000  0.000000

  -0.000011  0.000013  0.000000
  0.000013  0.000003  0.000000
  0.000000  0.000000  0.000000

  -0.000012  0.000010  0.000000
  0.000010  0.000008  0.000000
  0.000000  0.000000  0.000000

  -0.000013  0.000010  0.000000
  0.000010  0.000009  0.000000
  0.000000  0.000000  0.000000

  -0.000012  0.000014  0.000000
  0.000014  -0.000003  0.000000
  0.000000  0.000000  0.000000

  -0.000014  0.000017  0.000000
  0.000017  -0.000016  0.000000
  0.000000  0.000000  0.000000

  -0.000012  0.000017  0.000000
  0.000017  -0.000022  0.000000
  0.000000  0.000000  0.000000

  -0.000010  0.000010  0.000000
  0.000010  0.000009  0.000000
  0.000000  0.000000  0.000000

  -0.000012  0.000016  0.000000
  0.000016  -0.000015  0.000000
  0.000000  0.000000  0.000000

  -0.000012  0.000016  0.000000
  0.000016  -0.000009  0.000000
  0.000000  0.000000  0.000000

  -0.000011  0.000012  0.000000
  0.000012  0.000003  0.000000
  0.000000  0.000000  0.000000

  -0.000012  0.000016  0.000000
  0.000016  -0.000015  0.000000
  0.000000  0.000000  0.000000

  -0.000011  0.000018  0.000000
  0.000018  -0.000021  0.000000
  0.000000  0.000000  0.000000

  -0.000012  0.000017  0.000000
  0.000017  -0.000021  0.000000
  0.000000  0.000000  0.000000

  -0.000011  0.000019  0.000000
  0.000019  -0.000027  0.000000
  0.000000  0.000000  0.000000

  -0.000012  0.000018  0.000000
  0.000018  -0.000028  0.000000
  0.000000  0.000000  0.000000

  -0.000011  0.000020  0.000000
  0.000020  -0.000035  0.000000
  0.000000  0.000000  0.000000

  -0.000010  0.000020  0.000000
  0.000020  -0.000033  0.000000
  0.000000  0.000000  0.000000

  -0.000010  0.000019  0.000000
  0.000019  -0.000027  0.000000
  0.000000  0.000000  0.000000

  -0.000013  0.000018  0.000000
  0.000018  -0.000029  0.000000
  0.000000  0.000000  0.000000

  -0.000012  0.000019  0.000000
  0.000019  -0.000036  0.000000
  0.000000  0.000000  0.000000

  -0.000011  0.000018  0.000000
  0.000018  -0.000035  0.000000
  0.000000  0.000000  0.000000

  -0.000011  0.000017  0.000000
  0.000017  -0.000027  0.000000
  0.000000  0.000000  0.000000

  -0.000010  0.000019  0.000000
  0.000019  -0.000032  0.000000
  0.000000  0.000000  0.000000

  -0.000010  0.000017  0.000000
  0.000017  -0.000033  0.000000
  0.000000  0.000000  0.000000

  -0.000010  0.000017  0.000000
  0.000017  -0.000026  0.000000
  0.000000  0.000000  0.000000

  -0.000009  0.000019  0.000000
  0.000019  -0.000031  0.000000
  0.000000  0.000000  0.000000

  -0.000010  0.000019  0.000000
  0.000019  -0.000026  0.000000
  0.000000  0.000000  0.000000

  -0.000009  0.000017  0.000000
  0.000017  -0.000032  0.000000
  0.000000  0.000000  0.000000

  -0.000011  0.000017  0.000000
  0.000017  -0.000021  0.000000
  0.000000  0.000000  0.000000

  -0.000009  0.000019  0.000000
  0.000019  -0.000038  0.000000
  0.000000  0.000000  0.000000

  -0.000008  0.000018  0.000000
  0.000018  -0.000037  0.000000
  0.000000  0.000000  0.000000

  -0.000010  0.000018  0.000000
  0.000018  -0.000020  0.000000
  0.000000  0.000000  0.000000

  -0.000009  0.000017  0.000000
  0.000017  -0.000039  0.000000
  0.000000  0.000000  0.000000

  -0.000008  0.000019  0.000000
  0.000019  -0.000046  0.000000
  0.000000  0.000000  0.000000

  -0.000007  0.000019  0.000000
  0.000019  -0.000044  0.000000
  0.000000  0.000000  0.000000

  -0.000010  0.000018  0.000000
  0.000018  -0.000040  0.000000
  0.000000  0.000000  0.000000

  -0.000009  0.000020  0.000000
  0.000020  -0.000040  0.000000
  0.000000  0.000000  0.000000

  -0.000008  0.000020  0.000000
  0.000020  -0.000048  0.000000
  0.000000  0.000000  0.000000

  -0.000011  0.000019  0.000000
  0.000019  -0.000042  0.000000
  0.000000  0.000000  0.000000

  -0.000010  0.000022  0.000000
  0.000022  -0.000049  0.000000
  0.000000  0.000000  0.000000

  -0.000009  0.000018  0.000000
  0.000018  -0.000049  0.000000
  0.000000  0.000000  0.000000

  -0.000011  0.000020  0.000000
  0.000020  -0.000043  0.000000
  0.000000  0.000000  0.000000

  -0.000009  0.000019  0.000000
  0.000019  -0.000051  0.000000
  0.000000  0.000000  0.000000

  -0.000010  0.000021  0.000000
  0.000021  -0.000043  0.000000
  0.000000  0.000000  0.000000

  -0.000012  0.000019  0.000000
  0.000019  -0.000036  0.000000
  0.000000  0.000000  0.000000

  -0.000011  0.000021  0.000000
  0.000021  -0.000036  0.000000
  0.000000  0.000000  0.000000

  -0.000013  0.000019  0.000000
  0.000019  -0.000029  0.000000
  0.000000  0.000000  0.000000

  -0.000011  0.000022  0.000000
  0.000022  -0.000044  0.000000
  0.000000  0.000000  0.000000

  -0.000010  0.000022  0.000000
  0.000022  -0.000052  0.000000
  0.000000  0.000000  0.000000

  -0.000008  0.000017  0.000000
  0.000017  -0.000047  0.000000
  0.000000  0.000000  0.000000

  -0.000008  0.000016  0.000000
  0.000016  -0.000038  0.000000
  0.000000  0.000000  0.000000

  -0.000007  0.000018  0.000000
  0.000018  -0.000042  0.000000
  0.000000  0.000000  0.000000

  -0.000007  0.000015  0.000000
  0.000015  -0.000043  0.000000
  0.000000  0.000000  0.000000

  -0.000008  0.000015  0.000000
  0.000015  -0.000036  0.000000
  0.000000  0.000000  0.000000

  -0.000012  0.000021  0.000000
  0.000021  -0.000036  0.000000
  0.000000  0.000000  0.000000

  -0.000007  0.000016  0.000000
  0.000016  -0.000045  0.000000
  0.000000  0.000000  0.000000

  -0.000012  0.000020  0.000000
  0.000020  -0.000029  0.000000
  0.000000  0.000000  0.000000

  -0.000013  0.000017  0.000000
  0.000017  -0.000023  0.000000
  0.000000  0.000000  0.000000

  -0.000014  0.000018  0.000000
  0.000018  -0.000023  0.000000
  0.000000  0.000000  0.000000

  -0.000011  0.000020  0.000000
  0.000020  -0.000028  0.000000
  0.000000  0.000000  0.000000

  -0.000012  0.000019  0.000000
  0.000019  -0.000023  0.000000
  0.000000  0.000000  0.000000

  -0.000013  0.000021  0.000000
  0.000021  -0.000029  0.000000
  0.000000  0.000000  0.000000

  -0.000014  0.000017  0.000000
  0.000017  -0.000016  0.000000
  0.000000  0.000000  0.000000

  -0.000013  0.000018  0.000000
  0.000018  -0.000016  0.000000
  0.000000  0.000000  0.000000

  -0.000013  0.000019  0.000000
  0.000019  -0.000023  0.000000
  0.000000  0.000000  0.000000

  -0.000014  0.000015  0.000000
  0.000015  -0.000010  0.000000
  0.000000  0.000000  0.000000

  -0.000012  0.000016  0.000000
  0.000016  -0.000009  0.000000
  0.000000  0.000000  0.000000

  -0.000013  0.000018  0.000000
  0.000018  -0.000016  0.000000
  0.000000  0.000000  0.000000

  -0.000014  0.000014  0.000000
  0.000014  -0.000003  0.000000
  0.000000  0.000000  0.000000

  -0.000014  0.000014  0.000000
  0.000014  -0.000003  0.000000
  0.000000  0.000000  0.000000

  -0.000012  0.000014  0.000000
  0.000014  -0.000003  0.000000
  0.000000  0.000000  0.000000

  -0.000013  0.000016  0.000000
  0.000016  -0.000009  0.000000
  0.000000  0.000000  0.000000

  -0.000014  0.000011  0.000000
  0.000011  0.000004  0.000000
  0.000000  0.000000  0.000000

  -0.000011  0.000012  0.000000
  0.000012  0.000003  0.000000
  0.000000  0.000000  0.000000

  -0.000013  0.000014  0.000000
  0.000014  -0.000002  0.000000
  0.000000  0.000000  0.000000

  -0.000014  0.000015  0.000000
  0.000015  -0.000010  0.000000
  0.000000  0.000000  0.000000

  -0.000012  0.000018  0.000000
  0.000018  -0.000016  0.000000
  0.000000  0.000000  0.000000

  -0.000014  0.000018  0.000000
  0.000018  -0.000023  0.000000
  0.000000  0.000000  0.000000

  -0.000013  0.000021  0.000000
  0.000021  -0.000030  0.000000
  0.000000  0.000000  0.000000

  -0.000014  0.000019  0.000000
  0.000019  -0.000030  0.000000
  0.000000  0.000000  0.000000

  -0.000013  0.000022  0.000000
  0.000022  -0.000037  0.000000
  0.000000  0.000000  0.000000

  -0.000015  0.000020  0.000000
  0.000020  -0.000031  0.000000
  0.000000  0.000000  0.000000

  -0.000014  0.000021  0.000000
  0.000021  -0.000038  0.000000
  0.000000  0.000000  0.000000

  -0.000014  0.000023  0.000000
  0.000023  -0.000038  0.000000
  0.000000  0.000000  0.000000

  -0.000016  0.000021  0.000000
  0.000021  -0.000031  0.000000
  0.000000  0.000000  0.000000

  -0.000014  0.000021  0.000000
  0.000021  -0.000039  0.000000
  0.000000  0.000000  0.000000

  -0.000015  0.000015  0.000000
  0.000015  -0.000009  0.000000
  0.000000  0.000000  0.000000

  -0.000015  0.000013  0.000000
  0.000013  -0.000003  0.000000
  0.000000  0.000000  0.000000

  -0.000013  0.000016  0.000000
  0.000016  -0.000009  0.000000
  0.000000  0.000000  0.000000

  -0.000015  0.000013  0.000000
  0.000013  -0.000002  0.000000
  0.000000  0.000000  0.000000

  -0.000015  0.000015  0.000000
  0.000015  -0.000009  0.000000
  0.000000  0.000000  0.000000

  -0.000013  0.000010  0.000000
  0.000010  0.000009  0.000000
  0.000000  0.000000  0.000000

  -0.000011  0.000010  0.000000
  0.000010  0.000009  0.000000
  0.000000  0.000000  0.000000

  -0.000012  0.000008  0.000000
  0.000008  0.000015  0.000000
  0.000000  0.000000  0.000000

  -0.000012  0.000007  0.000000
  0.000007  0.000016  0.000000
  0.000000  0.000000  0.000000

  -0.000009  0.000008  0.000000
  0.000008  0.000015  0.000000
  0.000000  0.000000  0.000000

  -0.000011  0.000006  0.000000
  0.000006  0.000020  0.000000
  0.000000  0.000000  0.000000

  -0.000011  0.000005  0.000000
  0.000005  0.000021  0.000000
  0.000000  0.000000  0.000000

  -0.000014  0.000011  0.000000
  0.000011  0.000004  0.000000
  0.000000  0.000000  0.000000

  -0.000015  0.000017  0.000000
  0.000017  -0.000016  0.000000
  0.000000  0.000000  0.000000

  -0.000014  0.000020  0.000000
  0.000020  -0.000023  0.000000
  0.000000  0.000000  0.000000

  -0.000016  0.000017  0.000000
  0.000017  -0.000016  0.000000
  0.000000  0.000000  0.000000

  -0.000014  0.000018  0.000000
  0.000018  -0.000016  0.000000
  0.000000  0.000000  0.000000

  -0.000014  0.000020  0.000000
  0.000020  -0.000023  0.000000
  0.000000  0.000000  0.000000

  -0.000015  0.000019  0.000000
  0.000019  -0.000024  0.000000
  0.000000  0.000000  0.000000

  -0.000014  0.000021  0.000000
  0.000021  -0.000031  0.000000
  0.000000  0.000000  0.000000

  -0.000016  0.000019  0.000000
  0.000019  -0.000024  0.000000
  0.000000  0.000000  0.000000

  -0.000015  0.000022  0.000000
  0.000022  -0.000031  0.000000
  0.000000  0.000000  0.000000

  -0.000017  0.000019  0.000000
  0.000019  -0.000024  0.000000
  0.000000  0.000000  0.000000

  -0.000016  0.000021  0.000000
  0.000021  -0.000032  0.000000
  0.000000  0.000000  0.000000

  -0.000016  0.000017  0.000000
  0.000017  -0.000016  0.000000
  0.000000  0.000000  0.000000

  -0.000013  0.000009  0.000000
  0.000009  0.000010  0.000000
  0.000000  0.000000  0.000000

  -0.000009  0.000016  0.000000
  0.000016  -0.000031  0.000000
  0.000000  0.000000  0.000000

  -0.000012  0.000023  0.000000
  0.000023  -0.000044  0.000000
  0.000000  0.000000  0.000000

  -0.000012  0.000021  0.000000
  0.000021  -0.000045  0.000000
  0.000000  0.000000  0.000000

  -0.000013  0.000025  0.000000
  0.000025  -0.000053  0.000000
  0.000000  0.000000  0.000000

  -0.000011  0.000023  0.000000
  0.000023  -0.000054  0.000000
  0.000000  0.000000  0.000000

  -0.000012  0.000023  0.000000
  0.000023  -0.000054  0.000000
  0.000000  0.000000  0.000000

  -0.000012  0.000021  0.000000
  0.000021  -0.000044  0.000000
  0.000000  0.000000  0.000000

  -0.000013  0.000024  0.000000
  0.000024  -0.000046  0.000000
  0.000000  0.000000  0.000000

  -0.000013  0.000022  0.000000
  0.000022  -0.000047  0.000000
  0.000000  0.000000  0.000000

  -0.000013  0.000026  0.000000
  0.000026  -0.000056  0.000000
  0.000000  0.000000  0.000000

  -0.000014  0.000023  0.000000
  0.000023  -0.000048  0.000000
  0.000000  0.000000  0.000000

  -0.000012  0.000023  0.000000
  0.000023  -0.000058  0.000000
  0.000000  0.000000  0.000000

  -0.000015  0.000020  0.000000
  0.000020  -0.000024  0.000000
  0.000000  0.000000  0.000000

  -0.000011  0.000021  0.000000
  0.000021  -0.000057  0.000000
  0.000000  0.000000  0.000000

  -0.000013  0.000025  0.000000
  0.000025  -0.000047  0.000000
  0.000000  0.000000  0.000000

  -0.000016  0.000022  0.000000
  0.000022  -0.000039  0.000000
  0.000000  0.000000  0.000000

  -0.000015  0.000024  0.000000
  0.000024  -0.000039  0.000000
  0.000000  0.000000  0.000000

  -0.000014  0.000026  0.000000
  0.000026  -0.000047  0.000000
  0.000000  0.000000  0.000000

  -0.000017  0.000023  0.000000
  0.000023  -0.000039  0.000000
  0.000000  0.000000  0.000000

  -0.000015  0.000024  0.000000
  0.000024  -0.000048  0.000000
  0.000000  0.000000  0.000000

  -0.000015  0.000024  0.000000
  0.000024  -0.000039  0.000000
  0.000000  0.000000  0.000000

  -0.000017  0.000021  0.000000
  0.000021  -0.000031  0.000000
  0.000000  0.000000  0.000000

  -0.000015  0.000022  0.000000
  0.000022  -0.000031  0.000000
  0.000000  0.000000  0.000000

  -0.000016  0.000025  0.000000
  0.000025  -0.000039  0.000000
  0.000000  0.000000  0.000000

  -0.000018  0.000019  0.000000
  0.000019  -0.000023  0.000000
  0.000000  0.000000  0.000000

  -0.000015  0.000020  0.000000
  0.000020  -0.000023  0.000000
  0.000000  0.000000  0.000000

  -0.000016  0.000023  0.000000
  0.000023  -0.000031  0.000000
  0.000000  0.000000  0.000000

  -0.000015  0.000026  0.000000
  0.000026  -0.000048  0.000000
  0.000000  0.000000  0.000000

  -0.000013  0.000027  0.000000
  0.000027  -0.000057  0.000000
  0.000000  0.000000  0.000000

  -0.000012  0.000024  0.000000
  0.000024  -0.000058  0.000000
  0.000000  0.000000  0.000000

  -0.000018  0.000023  0.000000
  0.000023  -0.000039  0.000000
  0.000000  0.000000  0.000000

  -0.000016  0.000027  0.000000
  0.000027  -0.000048  0.000000
  0.000000  0.000000  0.000000

  -0.000019  0.000024  0.000000
  0.000024  -0.000039  0.000000
  0.000000  0.000000  0.000000

  -0.000018  0.000025  0.000000
  0.000025  -0.000048  0.000000
  0.000000  0.000000  0.000000

  -0.000017  0.000025  0.000000
  0.000025  -0.000039  0.000000
  0.000000  0.000000  0.000000

  -0.000019  0.000022  0.000000
  0.000022  -0.000031  0.000000
  0.000000  0.000000  0.000000

  -0.000017  0.000022  0.000000
  0.000022  -0.000031  0.000000
  0.000000  0.000000  0.000000

  -0.000017  0.000025  0.000000
  0.000025  -0.000039  0.000000
  0.000000  0.000000  0.000000

  -0.000017  0.000027  0.000000
  0.000027  -0.000048  0.000000
  0.000000  0.000000  0.000000

  -0.000017  0.000029  0.000000
  0.000029  -0.000057  0.000000
  0.000000  0.000000  0.000000

  -0.000018  0.000021  0.000000
  0.000021  -0.000031  0.000000
  0.000000  0.000000  0.000000

  -0.000015  0.000028  0.000000
  0.000028  -0.000057  0.000000
  0.000000  0.000000  0.000000

  -0.000016  0.000029  0.000000
  0.000029  -0.000056  0.000000
  0.000000  0.000000  0.000000

  -0.000016  0.000026  0.000000
  0.000026  -0.000057  0.000000
  0.000000  0.000000  0.000000

  -0.000017  0.000017  0.000000
  0.000017  -0.000016  0.000000
  0.000000  0.000000  0.000000

  -0.000015  0.000018  0.000000
  0.000018  -0.000016  0.000000
  0.000000  0.000000  0.000000

  -0.000018  0.000017  0.000000
  0.000017  -0.000015  0.000000
  0.000000  0.000000  0.000000

  -0.000018  0.000020  0.000000
  0.000020  -0.000023  0.000000
  0.000000  0.000000  0.000000

  -0.000016  0.000020  0.000000
  0.000020  -0.000023  0.000000
  0.000000  0.000000  0.000000

  -0.000018  0.000017  0.000000
  0.000017  -0.000015  0.000000
  0.000000  0.000000  0.000000

  -0.000016  0.000018  0.000000
  0.000018  -0.000015  0.000000
  0.000000  0.000000  0.000000

  -0.000017  0.000020  0.000000
  0.000020  -0.000022  0.000000
  0.000000  0.000000  0.000000

  -0.000020  0.000022  0.000000
  0.000022  -0.000031  0.000000
  0.000000  0.000000  0.000000

  -0.000014  0.000016  0.000000
  0.000016  -0.000009  0.000000
  0.000000  0.000000  0.000000

  -0.000016  0.000013  0.000000
  0.000013  -0.000002  0.000000
  0.000000  0.000000  0.000000

  -0.000016  0.000015  0.000000
  0.000015  -0.000009  0.000000
  0.000000  0.000000  0.000000

  -0.000013  0.000013  0.000000
  0.000013  -0.000002  0.000000
  0.000000  0.000000  0.000000

  -0.000014  0.000015  0.000000
  0.000015  -0.000008  0.000000
  0.000000  0.000000  0.000000

  -0.000014  0.000018  0.000000
  0.000018  -0.000016  0.000000
  0.000000  0.000000  0.000000

  -0.000015  0.000011  0.000000
  0.000011  0.000005  0.000000
  0.000000  0.000000  0.000000

  -0.000013  0.000014  0.000000
  0.000014  -0.000002  0.000000
  0.000000  0.000000  0.000000

  -0.000012  0.000011  0.000000
  0.000011  0.000005  0.000000
  0.000000  0.000000  0.000000

  -0.000014  0.000009  0.000000
  0.000009  0.000011  0.000000
  0.000000  0.000000  0.000000

  -0.000014  0.000008  0.000000
  0.000008  0.000012  0.000000
  0.000000  0.000000  0.000000

  -0.000011  0.000009  0.000000
  0.000009  0.000011  0.000000
  0.000000  0.000000  0.000000

  -0.000013  0.000007  0.000000
  0.000007  0.000017  0.000000
  0.000000  0.000000  0.000000

  -0.000013  0.000006  0.000000
  0.000006  0.000017  0.000000
  0.000000  0.000000  0.000000

  -0.000011  0.000009  0.000000
  0.000009  0.000010  0.000000
  0.000000  0.000000  0.000000

  -0.000009  0.000006  0.000000
  0.000006  0.000016  0.000000
  0.000000  0.000000  0.000000

  -0.000011  0.000005  0.000000
  0.000005  0.000022  0.000000
  0.000000  0.000000  0.000000

  -0.000008  0.000004  0.000000
  0.000004  0.000022  0.000000
  0.000000  0.000000  0.000000

  -0.000010  0.000003  0.000000
  0.000003  0.000027  0.000000
  0.000000  0.000000  0.000000

  -0.000010  0.000002  0.000000
  0.000002  0.000028  0.000000
  0.000000  0.000000  0.000000

  -0.000012  0.000004  0.000000
  0.000004  0.000023  0.000000
  0.000000  0.000000  0.000000

  -0.000009  0.000007  0.000000
  0.000007  0.000015  0.000000
  0.000000  0.000000  0.000000

  -0.000015  0.000010  0.000000
  0.000010  0.000006  0.000000
  0.000000  0.000000  0.000000

  -0.000017  0.000015  0.000000
  0.000015  -0.000008  0.000000
  0.000000  0.000000  0.000000

  -0.000015  0.000018  0.000000
  0.000018  -0.000015  0.000000
  0.000000  0.000000  0.000000

  -0.000017  0.000015  0.000000
  0.000015  -0.000008  0.000000
  0.000000  0.000000  0.000000

  -0.000008  0.000004  0.000000
  0.000004  0.000023  0.000000
  0.000000  0.000000  0.000000

  -0.000010  0.000001  0.000000
  0.000001  0.000029  0.000000
  0.000000  0.000000  0.000000

  -0.000007  0.000000  0.000000
  0.000000  0.000029  0.000000
  0.000000  0.000000  0.000000

  -0.000008  0.000003  0.000000
  0.000003  0.000024  0.000000
  0.000000  0.000000  0.000000

  -0.000016  0.000012  0.000000
  0.000012  -0.000001  0.000000
  0.000000  0.000000  0.000000

  -0.000010  0.000006  0.000000
  0.000006  0.000017  0.000000
  0.000000  0.000000  0.000000

  -0.000015  0.000030  0.000000
  0.000030  -0.000068  0.000000
  0.000000  0.000000  0.000000

  -0.000013  0.000030  0.000000
  0.000030  -0.000070  0.000000
  0.000000  0.000000  0.000000

  -0.000008  0.000005  0.000000
  0.000005  0.000021  0.000000
  0.000000  0.000000  0.000000

  -0.000010  0.000004  0.000000
  0.000004  0.000026  0.000000
  0.000000  0.000000  0.000000

  -0.000008  0.000006  0.000000
  0.000006  0.000020  0.000000
  0.000000  0.000000  0.000000

  -0.000007  0.000003  0.000000
  0.000003  0.000025  0.000000
  0.000000  0.000000  0.000000

  -0.000010  0.000004  0.000000
  0.000004  0.000025  0.000000
  0.000000  0.000000  0.000000

  -0.000007  0.000004  0.000000
  0.000004  0.000025  0.000000
  0.000000  0.000000  0.000000

  -0.000009  0.000002  0.000000
  0.000002  0.000030  0.000000
  0.000000  0.000000  0.000000

  -0.000007  0.000004  0.000000
  0.000004  0.000024  0.000000
  0.000000  0.000000  0.000000

  -0.000008  0.000002  0.000000
  0.000002  0.000031  0.000000
  0.000000  0.000000  0.000000

  -0.000006  0.000001  0.000000
  0.000001  0.000030  0.000000
  0.000000  0.000000  0.000000

  -0.000008  -0.000000  0.000000
  -0.000000  0.000035  0.000000
  0.000000  0.000000  0.000000

  -0.000007  -0.000002  0.000000
  -0.000002  0.000036  0.000000
  0.000000  0.000000  0.000000

  -0.000009  0.000001  0.000000
  0.000001  0.000032  0.000000
  0.000000  0.000000  0.000000

  -0.000004  -0.000002  0.000000
  -0.000002  0.000036  0.000000
  0.000000  0.000000  0.000000

  -0.000007  0.000002  0.000000
  0.000002  0.000026  0.000000
  0.000000  0.000000  0.000000

  -0.000009  -0.000000  0.000000
  -0.000000  0.000033  0.000000
  0.000000  0.000000  0.000000

  -0.000005  -0.000001  0.000000
  -0.000001  0.000032  0.000000
  0.000000  0.000000  0.000000

  -0.000007  0.000001  0.000000
  0.000001  0.000028  0.000000
  0.000000  0.000000  0.000000

  -0.000009  -0.000001  0.000000
  -0.000001  0.000034  0.000000
  0.000000  0.000000  0.000000

  -0.000005  -0.000002  0.000000
  -0.000002  0.000034  0.000000
  0.000000  0.000000  0.000000

  -0.000007  -0.000003  0.000000
  -0.000003  0.000039  0.000000
  0.000000  0.000000  0.000000

  -0.000007  -0.000004  0.000000
  -0.000004  0.000040  0.000000
  0.000000  0.000000  0.000000

  -0.000003  -0.000004  0.000000
  -0.000004  0.000038  0.000000
  0.000000  0.000000  0.000000

  -0.000006  0.000000  0.000000
  0.000000  0.000031  0.000000
  0.000000  0.000000  0.000000

  -0.000007  -0.000002  0.000000
  -0.000002  0.000037  0.000000
  0.000000  0.000000  0.000000

  -0.000004  -0.000003  0.000000
  -0.000003  0.000037  0.000000
  0.000000  0.000000  0.000000

  -0.000006  -0.000004  0.000000
  -0.000004  0.000042  0.000000
  0.000000  0.000000  0.000000

  -0.000002  -0.000005  0.000000
  -0.000005  0.000041  0.000000
  0.000000  0.000000  0.000000

  -0.000006  -0.000005  0.000000
  -0.000005  0.000043  0.000000
  0.000000  0.000000  0.000000

  -0.000004  -0.000006  0.000000
  -0.000006  0.000046  0.000000
  0.000000  0.000000  0.000000

  -0.000004  -0.000008  0.000000
  -0.000008  0.000046  0.000000
  0.000000  0.000000  0.000000

  -0.000002  -0.000006  0.000000
  -0.000006  0.000042  0.000000
  0.000000  0.000000  0.000000

  -0.000004  -0.000009  0.000000
  -0.000009  0.000049  0.000000
  0.000000  0.000000  0.000000

  0.000000  -0.000010  0.000000
  -0.000010  0.000048  0.000000
  0.000000  0.000000  0.000000

  -0.000002  -0.000007  0.000000
  -0.000007  0.000044  0.000000
  0.000000  0.000000  0.000000

  -0.000003  -0.000004  0.000000
  -0.000004  0.000039  0.000000
  0.000000  0.000000  0.000000

  -0.000001  -0.000007  0.000000
  -0.000007  0.000045  0.000000
  0.000000  0.000000  0.000000

  -0.000000  -0.000008  0.000000
  -0.000008  0.000046  0.000000
  0.000000  0.000000  0.000000

  -0.000003  -0.000009  0.000000
  -0.000009  0.000049  0.000000
  0.000000  0.000000  0.000000

  -0.000005  -0.000007  0.000000
  -0.000007  0.000044  0.000000
  0.000000  0.000000  0.000000

  -0.000003  -0.000005  0.000000
  -0.000005  0.000039  0.000000
  0.000000  0.000000  0.000000

  -0.000005  -0.000007  0.000000
  -0.000007  0.000046  0.000000
  0.000000  0.000000  0.000000

  -0.000001  -0.000010  0.000000
  -0.000010  0.000046  0.000000
  0.000000  0.000000  0.000000

  -0.000003  -0.000007  0.000000
  -0.000007  0.000041  0.000000
  0.000000  0.000000  0.000000

  -0.000005  -0.000009  0.000000
  -0.000009  0.000049  0.000000
  0.000000  0.000000  0.000000

  -0.000007  -0.000005  0.000000
  -0.000005  0.000042  0.000000
  0.000000  0.000000  0.000000

  -0.000019  0.000024  0.000000
  0.000024  -0.000039  0.000000
  0.000000  0.000000  0.000000

  -0.000018  0.000028  0.000000
  0.000028  -0.000048  0.000000
  0.000000  0.000000  0.000000

  -0.000020  0.000025  0.000000
  0.000025  -0.000039  0.000000
  0.000000  0.000000  0.000000

  -0.000020  0.000027  0.000000
  0.000027  -0.000048  0.000000
  0.000000  0.000000  0.000000

  -0.000018  0.000025  0.000000
  0.000025  -0.000039  0.000000
  0.000000  0.000000  0.000000

  -0.000021  0.000022  0.000000
  0.000022  -0.000030  0.000000
  0.000000  0.000000  0.000000

  -0.000018  0.000023  0.000000
  0.000023  -0.000030  0.000000
  0.000000  0.000000  0.000000

  -0.000019  0.000026  0.000000
  0.000026  -0.000038  0.000000
  0.000000  0.000000  0.000000

  -0.000019  0.000028  0.000000
  0.000028  -0.000048  0.000000
  0.000000  0.000000  0.000000

  -0.000018  0.000031  0.000000
  0.000031  -0.000057  0.000000
  0.000000  0.000000  0.000000

  -0.000017  0.000030  0.000000
  0.000030  -0.000057  0.000000
  0.000000  0.000000  0.000000

  -0.000019  0.000029  0.000000
  0.000029  -0.000058  0.000000
  0.000000  0.000000  0.000000

  -0.000011  0.000008  0.000000
  0.000008  0.000012  0.000000
  0.000000  0.000000  0.000000

  -0.000013  0.000005  0.000000
  0.000005  0.000018  0.000000
  0.000000  0.000000  0.000000

  -0.000010  0.000005  0.000000
  0.000005  0.000018  0.000000
  0.000000  0.000000  0.000000

  -0.000011  0.000008  0.000000
  0.000008  0.000013  0.000000
  0.000000  0.000000  0.000000

  -0.000013  0.000004  0.000000
  0.000004  0.000019  0.000000
  0.000000  0.000000  0.000000

  -0.000014  0.000007  0.000000
  0.000007  0.000013  0.000000
  0.000000  0.000000  0.000000

  -0.000012  0.000010  0.000000
  0.000010  0.000006  0.000000
  0.000000  0.000000  0.000000

  -0.000014  0.000007  0.000000
  0.000007  0.000013  0.000000
  0.000000  0.000000  0.000000

  -0.000015  0.000010  0.000000
  0.000010  0.000007  0.000000
  0.000000  0.000000  0.000000

  -0.000013  0.000012  0.000000
  0.000012  -0.000000  0.000000
  0.000000  0.000000  0.000000

  -0.000016  0.000009  0.000000
  0.000009  0.000008  0.000000
  0.000000  0.000000  0.000000

  -0.000017  0.000012  0.000000
  0.000012  -0.000000  0.000000
  0.000000  0.000000  0.000000

  -0.000015  0.000015  0.000000
  0.000015  -0.000007  0.000000
  0.000000  0.000000  0.000000

  -0.000014  0.000015  0.000000
  0.000015  -0.000008  0.000000
  0.000000  0.000000  0.000000

  -0.000017  0.000012  0.000000
  0.000012  0.000001  0.000000
  0.000000  0.000000  0.000000

  -0.000018  0.000014  0.000000
  0.000014  -0.000007  0.000000
  0.000000  0.000000  0.000000

  -0.000016  0.000017  0.000000
  0.000017  -0.000014  0.000000
  0.000000  0.000000  0.000000

  -0.000018  0.000014  0.000000
  0.000014  -0.000006  0.000000
  0.000000  0.000000  0.000000

  -0.000019  0.000017  0.000000
  0.000017  -0.000014  0.000000
  0.000000  0.000000  0.000000

  -0.000011  0.000007  0.000000
  0.000007  0.000013  0.000000
  0.000000  0.000000  0.000000

  -0.000013  0.000004  0.000000
  0.000004  0.000021  0.000000
  0.000000  0.000000  0.000000

  -0.000009  0.000003  0.000000
  0.000003  0.000020  0.000000
  0.000000  0.000000  0.000000

  -0.000011  0.000006  0.000000
  0.000006  0.000014  0.000000
  0.000000  0.000000  0.000000

  -0.000012  0.000009  0.000000
  0.000009  0.000007  0.000000
  0.000000  0.000000  0.000000

  -0.000015  0.000006  0.000000
  0.000006  0.000015  0.000000
  0.000000  0.000000  0.000000

  -0.000012  0.000008  0.000000
  0.000008  0.000008  0.000000
  0.000000  0.000000  0.000000

  -0.000015  0.000005  0.000000
  0.000005  0.000016  0.000000
  0.000000  0.000000  0.000000

  -0.000016  0.000009  0.000000
  0.000009  0.000009  0.000000
  0.000000  0.000000  0.000000

  -0.000014  0.000011  0.000000
  0.000011  0.000001  0.000000
  0.000000  0.000000  0.000000

  -0.000016  0.000008  0.000000
  0.000008  0.000010  0.000000
  0.000000  0.000000  0.000000

  -0.000017  0.000011  0.000000
  0.000011  0.000002  0.000000
  0.000000  0.000000  0.000000

  -0.000011  0.000005  0.000000
  0.000005  0.000015  0.000000
  0.000000  0.000000  0.000000

  -0.000012  0.000007  0.000000
  0.000007  0.000009  0.000000
  0.000000  0.000000  0.000000

  -0.000015  0.000005  0.000000
  0.000005  0.000017  0.000000
  0.000000  0.000000  0.000000

  -0.000010  0.000003  0.000000
  0.000003  0.000017  0.000000
  0.000000  0.000000  0.000000

  -0.000012  0.000007  0.000000
  0.000007  0.000011  0.000000
  0.000000  0.000000  0.000000

  -0.000015  0.000014  0.000000
  0.000014  -0.000005  0.000000
  0.000000  0.000000  0.000000

  -0.000015  0.000014  0.000000
  0.000014  -0.000006  0.000000
  0.000000  0.000000  0.000000

  -0.000013  0.000003  0.000000
  0.000003  0.000022  0.000000
  0.000000  0.000000  0.000000

  -0.000009  0.000002  0.000000
  0.000002  0.000021  0.000000
  0.000000  0.000000  0.000000

  -0.000011  0.000000  0.000000
  0.000000  0.000028  0.000000
  0.000000  0.000000  0.000000

  -0.000011  -0.000001  0.000000
  -0.000001  0.000029  0.000000
  0.000000  0.000000  0.000000

  -0.000007  -0.000000  0.000000
  -0.000000  0.000027  0.000000
  0.000000  0.000000  0.000000

  -0.000013  0.000002  0.000000
  0.000002  0.000023  0.000000
  0.000000  0.000000  0.000000

  -0.000009  0.000002  0.000000
  0.000002  0.000023  0.000000
  0.000000  0.000000  0.000000

  -0.000011  -0.000001  0.000000
  -0.000001  0.000031  0.000000
  0.000000  0.000000  0.000000

  -0.000007  -0.000006  0.000000
  -0.000006  0.000033  0.000000
  0.000000  0.000000  0.000000

  -0.000008  -0.000000  0.000000
  -0.000000  0.000024  0.000000
  0.000000  0.000000  0.000000

  -0.000016  0.000007  0.000000
  0.000007  0.000011  0.000000
  0.000000  0.000000  0.000000

  -0.000010  -0.000003  0.000000
  -0.000003  0.000034  0.000000
  0.000000  0.000000  0.000000

  -0.000007  -0.000003  0.000000
  -0.000003  0.000033  0.000000
  0.000000  0.000000  0.000000

  -0.000013  0.000001  0.000000
  0.000001  0.000025  0.000000
  0.000000  0.000000  0.000000

  -0.000010  0.000003  0.000000
  0.000003  0.000018  0.000000
  0.000000  0.000000  0.000000

  -0.000012  -0.000000  0.000000
  -0.000000  0.000026  0.000000
  0.000000  0.000000  0.000000

  -0.000015  0.000003  0.000000
  0.000003  0.000019  0.000000
  0.000000  0.000000  0.000000

  -0.000010  0.000002  0.000000
  0.000002  0.000014  0.000000
  0.000000  0.000000  0.000000

  -0.000007  -0.000002  0.000000
  -0.000002  0.000025  0.000000
  0.000000  0.000000  0.000000

  -0.000012  0.000004  0.000000
  0.000004  0.000019  0.000000
  0.000000  0.000000  0.000000

  -0.000014  0.000011  0.000000
  0.000011  0.000001  0.000000
  0.000000  0.000000  0.000000

  -0.000012  0.000002  0.000000
  0.000002  0.000026  0.000000
  0.000000  0.000000  0.000000

  -0.000014  0.000010  0.000000
  0.000010  0.000003  0.000000
  0.000000  0.000000  0.000000

  -0.000018  0.000011  0.000000
  0.000011  0.000003  0.000000
  0.000000  0.000000  0.000000

  -0.000015  0.000013  0.000000
  0.000013  -0.000004  0.000000
  0.000000  0.000000  0.000000

  -0.000018  0.000009  0.000000
  0.000009  0.000004  0.000000
  0.000000  0.000000  0.000000

  -0.000019  0.000013  0.000000
  0.000013  -0.000004  0.000000
  0.000000  0.000000  0.000000

  -0.000011  0.000015  0.000000
  0.000015  -0.000009  0.000000
  0.000000  0.000000  0.000000

  -0.000010  0.000017  0.000000
  0.000017  -0.000014  0.000000
  0.000000  0.000000  0.000000

  -0.000010  0.000016  0.000000
  0.000016  -0.000008  0.000000
  0.000000  0.000000  0.000000

  -0.000011  0.000016  0.000000
  0.000016  -0.000014  0.000000
  0.000000  0.000000  0.000000

  -0.000010  0.000018  0.000000
  0.000018  -0.000019  0.000000
  0.000000  0.000000  0.000000

  -0.000019  0.000020  0.000000
  0.000020  -0.000022  0.000000
  0.000000  0.000000  0.000000

  -0.000017  0.000023  0.000000
  0.000023  -0.000030  0.000000
  0.000000  0.000000  0.000000

  -0.000020  0.000020  0.000000
  0.000020  -0.000022  0.000000
  0.000000  0.000000  0.000000

  -0.000012  0.000010  0.000000
  0.000010  0.000006  0.000000
  0.000000  0.000000  0.000000

  -0.000004  0.000014  0.000000
  0.000014  0.000004  0.000000
  0.000000  0.000000  0.000000

  -0.000012  0.000008  0.000000
  0.000008  0.000014  0.000000
  0.000000  0.000000  0.000000

  -0.000009  0.000008  0.000000
  0.000008  0.000014  0.000000
  0.000000  0.000000  0.000000

  -0.000011  0.000007  0.000000
  0.000007  0.000019  0.000000
  0.000000  0.000000  0.000000

  -0.000008  0.000006  0.000000
  0.000006  0.000019  0.000000
  0.000000  0.000000  0.000000

  -0.000020  0.000020  0.000000
  0.000020  -0.000021  0.000000
  0.000000  0.000000  0.000000

  -0.000005  0.000001  0.000000
  0.000001  0.000034  0.000000
  0.000000  0.000000  0.000000

  -0.000002  -0.000000  0.000000
  -0.000000  0.000034  0.000000
  0.000000  0.000000  0.000000

  -0.000008  0.000015  0.000000
  0.000015  -0.000019  0.000000
  0.000000  0.000000  0.000000

  -0.000006  0.000016  0.000000
  0.000016  -0.000022  0.000000
  0.000000  0.000000  0.000000

  -0.000007  0.000014  0.000000
  0.000014  -0.000023  0.000000
  0.000000  0.000000  0.000000

  -0.000007  0.000014  0.000000
  0.000014  -0.000018  0.000000
  0.000000  0.000000  0.000000

  -0.000006  0.000016  0.000000
  0.000016  -0.000020  0.000000
  0.000000  0.000000  0.000000

  -0.000006  0.000014  0.000000
  0.000014  -0.000021  0.000000
  0.000000  0.000000  0.000000

  -0.000007  0.000014  0.000000
  0.000014  -0.000016  0.000000
  0.000000  0.000000  0.000000

  -0.000006  0.000016  0.000000
  0.000016  -0.000027  0.000000
  0.000000  0.000000  0.000000

  -0.000006  0.000013  0.000000
  0.000013  -0.000029  0.000000
  0.000000  0.000000  0.000000

  -0.000005  0.000015  0.000000
  0.000015  -0.000035  0.000000
  0.000000  0.000000  0.000000

  -0.000005  0.000015  0.000000
  0.000015  -0.000032  0.000000
  0.000000  0.000000  0.000000

  -0.000006  0.000015  0.000000
  0.000015  -0.000026  0.000000
  0.000000  0.000000  0.000000

  -0.000006  0.000013  0.000000
  0.000013  -0.000027  0.000000
  0.000000  0.000000  0.000000

  -0.000005  0.000014  0.000000
  0.000014  -0.000028  0.000000
  0.000000  0.000000  0.000000

  -0.000004  0.000011  0.000000
  0.000011  -0.000032  0.000000
  0.000000  0.000000  0.000000

  -0.000005  0.000012  0.000000
  0.000012  -0.000025  0.000000
  0.000000  0.000000  0.000000

  -0.000005  0.000012  0.000000
  0.000012  -0.000037  0.000000
  0.000000  0.000000  0.000000

  -0.000005  0.000014  0.000000
  0.000014  -0.000025  0.000000
  0.000000  0.000000  0.000000

  -0.000005  0.000015  0.000000
  0.000015  -0.000023  0.000000
  0.000000  0.000000  0.000000

  -0.000006  0.000013  0.000000
  0.000013  -0.000019  0.000000
  0.000000  0.000000  0.000000

  -0.000005  0.000014  0.000000
  0.000014  -0.000021  0.000000
  0.000000  0.000000  0.000000

  -0.000006  0.000015  0.000000
  0.000015  -0.000018  0.000000
  0.000000  0.000000  0.000000

  -0.000006  0.000014  0.000000
  0.000014  -0.000014  0.000000
  0.000000  0.000000  0.000000

  -0.000005  0.000015  0.000000
  0.000015  -0.000016  0.000000
  0.000000  0.000000  0.000000

  -0.000006  0.000016  0.000000
  0.000016  -0.000013  0.000000
  0.000000  0.000000  0.000000

  -0.000006  0.000016  0.000000
  0.000016  -0.000012  0.000000
  0.000000  0.000000  0.000000

  -0.000006  0.000014  0.000000
  0.000014  -0.000013  0.000000
  0.000000  0.000000  0.000000

  -0.000005  0.000015  0.000000
  0.000015  -0.000014  0.000000
  0.000000  0.000000  0.000000

  -0.000005  0.000013  0.000000
  0.000013  -0.000016  0.000000
  0.000000  0.000000  0.000000

  -0.000005  0.000014  0.000000
  0.000014  -0.000012  0.000000
  0.000000  0.000000  0.000000

  -0.000005  0.000012  0.000000
  0.000012  -0.000022  0.000000
  0.000000  0.000000  0.000000

  -0.000004  0.000013  0.000000
  0.000013  -0.000023  0.000000
  0.000000  0.000000  0.000000

  -0.000004  0.000011  0.000000
  0.000011  -0.000024  0.000000
  0.000000  0.000000  0.000000

  -0.000005  0.000012  0.000000
  0.000012  -0.000020  0.000000
  0.000000  0.000000  0.000000

  -0.000004  0.000013  0.000000
  0.000013  -0.000021  0.000000
  0.000000  0.000000  0.000000

  -0.000004  0.000010  0.000000
  0.000010  -0.000022  0.000000
  0.000000  0.000000  0.000000

  -0.000004  0.000012  0.000000
  0.000012  -0.000017  0.000000
  0.000000  0.000000  0.000000

  -0.000006  0.000013  0.000000
  0.000013  -0.000017  0.000000
  0.000000  0.000000  0.000000

  -0.000004  0.000014  0.000000
  0.000014  -0.000018  0.000000
  0.000000  0.000000  0.000000

  -0.000004  0.000012  0.000000
  0.000012  -0.000028  0.000000
  0.000000  0.000000  0.000000

  -0.000003  0.000012  0.000000
  0.000012  -0.000026  0.000000
  0.000000  0.000000  0.000000

  -0.000003  0.000009  0.000000
  0.000009  -0.000027  0.000000
  0.000000  0.000000  0.000000

  -0.000006  0.000014  0.000000
  0.000014  -0.000031  0.000000
  0.000000  0.000000  0.000000

  -0.000006  0.000016  0.000000
  0.000016  -0.000038  0.000000
  0.000000  0.000000  0.000000

  -0.000007  0.000014  0.000000
  0.000014  -0.000034  0.000000
  0.000000  0.000000  0.000000

  -0.000005  0.000013  0.000000
  0.000013  -0.000039  0.000000
  0.000000  0.000000  0.000000

  -0.000006  0.000016  0.000000
  0.000016  -0.000040  0.000000
  0.000000  0.000000  0.000000

  -0.000004  0.000011  0.000000
  0.000011  -0.000034  0.000000
  0.000000  0.000000  0.000000

  -0.000007  0.000014  0.000000
  0.000014  -0.000025  0.000000
  0.000000  0.000000  0.000000

  -0.000005  0.000015  0.000000
  0.000015  -0.000011  0.000000
  0.000000  0.000000  0.000000

  -0.000004  0.000014  0.000000
  0.000014  -0.000016  0.000000
  0.000000  0.000000  0.000000

  -0.000005  0.000015  0.000000
  0.000015  -0.000010  0.000000
  0.000000  0.000000  0.000000

  -0.000006  0.000014  0.000000
  0.000014  -0.000007  0.000000
  0.000000  0.000000  0.000000

  -0.000003  0.000011  0.000000
  0.000011  -0.000024  0.000000
  0.000000  0.000000  0.000000

  -0.000004  0.000012  0.000000
  0.000012  -0.000018  0.000000
  0.000000  0.000000  0.000000

  -0.000004  0.000011  0.000000
  0.000011  -0.000027  0.000000
  0.000000  0.000000  0.000000

  -0.000004  0.000012  0.000000
  0.000012  -0.000031  0.000000
  0.000000  0.000000  0.000000

  -0.000004  0.000013  0.000000
  0.000013  -0.000013  0.000000
  0.000000  0.000000  0.000000

  -0.000008  0.000018  0.000000
  0.000018  -0.000030  0.000000
  0.000000  0.000000  0.000000

  -0.000003  0.000010  0.000000
  0.000010  -0.000029  0.000000
  0.000000  0.000000  0.000000

  -0.000003  0.000010  0.000000
  0.000010  -0.000019  0.000000
  0.000000  0.000000  0.000000

  -0.000003  -0.000002  0.000000
  -0.000002  0.000037  0.000000
  0.000000  0.000000  0.000000

  -0.000009  0.000017  0.000000
  0.000017  -0.000012  0.000000
  0.000000  0.000000  0.000000

  -0.000005  0.000016  0.000000
  0.000016  -0.000001  0.000000
  0.000000  0.000000  0.000000

  -0.000005  0.000015  0.000000
  0.000015  0.000002  0.000000
  0.000000  0.000000  0.000000

  -0.000005  0.000016  0.000000
  0.000016  -0.000000  0.000000
  0.000000  0.000000  0.000000

  -0.000004  0.000015  0.000000
  0.000015  0.000002  0.000000
  0.000000  0.000000  0.000000

  -0.000005  0.000015  0.000000
  0.000015  -0.000001  0.000000
  0.000000  0.000000  0.000000

  -0.000004  0.000015  0.000000
  0.000015  0.000002  0.000000
  0.000000  0.000000  0.000000

  -0.000005  0.000002  0.000000
  0.000002  0.000029  0.000000
  0.000000  0.000000  0.000000

  -0.000004  0.000007  0.000000
  0.000007  0.000020  0.000000
  0.000000  0.000000  0.000000

  -0.000003  0.000007  0.000000
  0.000007  0.000020  0.000000
  0.000000  0.000000  0.000000

  -0.000003  -0.000009  0.000000
  -0.000009  0.000051  0.000000
  0.000000  0.000000  0.000000

  -0.000001  -0.000005  0.000000
  -0.000005  0.000042  0.000000
  0.000000  0.000000  0.000000

  -0.000013  0.000020  0.000000
  0.000020  -0.000037  0.000000
  0.000000  0.000000  0.000000

  -0.000009  0.000016  0.000000
  0.000016  -0.000007  0.000000
  0.000000  0.000000  0.000000

  -0.000010  0.000015  0.000000
  0.000015  -0.000008  0.000000
  0.000000  0.000000  0.000000

  -0.000019  0.000026  0.000000
  0.000026  -0.000048  0.000000
  0.000000  0.000000  0.000000

  -0.000006  -0.000003  0.000000
  -0.000003  0.000040  0.000000
  0.000000  0.000000  0.000000

  -0.000004  -0.000001  0.000000
  -0.000001  0.000035  0.000000
  0.000000  0.000000  0.000000

  -0.000006  -0.000003  0.000000
  -0.000003  0.000039  0.000000
  0.000000  0.000000  0.000000

  -0.000004  -0.000000  0.000000
  -0.000000  0.000033  0.000000
  0.000000  0.000000  0.000000

  -0.000006  -0.000001  0.000000
  -0.000001  0.000037  0.000000
  0.000000  0.000000  0.000000

  -0.000002  0.000008  0.000000
  0.000008  -0.000025  0.000000
  0.000000  0.000000  0.000000

  -0.000009  0.000009  0.000000
  0.000009  0.000013  0.000000
  0.000000  0.000000  0.000000

  -0.000003  0.000012  0.000000
  0.000012  0.000009  0.000000
  0.000000  0.000000  0.000000

  -0.000019  0.000014  0.000000
  0.000014  -0.000005  0.000000
  0.000000  0.000000  0.000000

  -0.000011  0.000009  0.000000
  0.000009  0.000013  0.000000
  0.000000  0.000000  0.000000

  -0.000003  0.000010  0.000000
  0.000010  0.000012  0.000000
  0.000000  0.000000  0.000000

  -0.000004  0.000010  0.000000
  0.000010  0.000014  0.000000
  0.000000  0.000000  0.000000

  -0.000003  0.000010  0.000000
  0.000010  0.000011  0.000000
  0.000000  0.000000  0.000000

  -0.000003  0.000009  0.000000
  0.000009  0.000014  0.000000
  0.000000  0.000000  0.000000

  -0.000004  0.000011  0.000000
  0.000011  0.000011  0.000000
  0.000000  0.000000  0.000000

  -0.000003  0.000012  0.000000
  0.000012  0.000008  0.000000
  0.000000  0.000000  0.000000

  -0.000003  0.000010  0.000000
  0.000010  0.000013  0.000000
  0.000000  0.000000  0.000000

  -0.000003  0.000008  0.000000
  0.000008  0.000016  0.000000
  0.000000  0.000000  0.000000

  -0.000003  0.000008  0.000000
  0.000008  0.000017  0.000000
  0.000000  0.000000  0.000000

  -0.000004  0.000012  0.000000
  0.000012  0.000009  0.000000
  0.000000  0.000000  0.000000

  -0.000003  0.000011  0.000000
  0.000011  0.000010  0.000000
  0.000000  0.000000  0.000000

  -0.000002  0.000010  0.000000
  0.000010  0.000010  0.000000
  0.000000  0.000000  0.000000

  -0.000003  0.000010  0.000000
  0.000010  0.000012  0.000000
  0.000000  0.000000  0.000000

  -0.000002  0.000010  0.000000
  0.000010  0.000009  0.000000
  0.000000  0.000000  0.000000

  -0.000002  0.000009  0.000000
  0.000009  0.000011  0.000000
  0.000000  0.000000  0.000000

  -0.000003  0.000011  0.000000
  0.000011  0.000009  0.000000
  0.000000  0.000000  0.000000

  -0.000003  0.000010  0.000000
  0.000010  0.000011  0.000000
  0.000000  0.000000  0.000000

  -0.000002  0.000008  0.000000
  0.000008  0.000013  0.000000
  0.000000  0.000000  0.000000

  -0.000003  0.000008  0.000000
  0.000008  0.000014  0.000000
  0.000000  0.000000  0.000000

  -0.000002  0.000007  0.000000
  0.000007  0.000014  0.000000
  0.000000  0.000000  0.000000

  -0.000002  0.000006  0.000000
  0.000006  0.000016  0.000000
  0.000000  0.000000  0.000000

  -0.000003  0.000006  0.000000
  0.000006  0.000018  0.000000
  0.000000  0.000000  0.000000

  -0.000003  0.000008  0.000000
  0.000008  0.000017  0.000000
  0.000000  0.000000  0.000000

  -0.000003  0.000012  0.000000
  0.000012  0.000008  0.000000
  0.000000  0.000000  0.000000

  -0.000003  0.000012  0.000000
  0.000012  0.000008  0.000000
  0.000000  0.000000  0.000000

  -0.000003  0.000013  0.000000
  0.000013  0.000006  0.000000
  0.000000  0.000000  0.000000

  -0.000003  0.000013  0.000000
  0.000013  0.000006  0.000000
  0.000000  0.000000  0.000000

  -0.000004  0.000013  0.000000
  0.000013  0.000006  0.000000
  0.000000  0.000000  0.000000

  -0.000004  0.000014  0.000000
  0.000014  0.000004  0.000000
  0.000000  0.000000  0.000000

  -0.000003  0.000014  0.000000
  0.000014  0.000004  0.000000
  0.000000  0.000000  0.000000

  -0.000004  0.000013  0.000000
  0.000013  0.000006  0.000000
  0.000000  0.000000  0.000000

  -0.000003  0.000014  0.000000
  0.000014  0.000004  0.000000
  0.000000  0.000000  0.000000

  -0.000003  0.000012  0.000000
  0.000012  0.000007  0.000000
  0.000000  0.000000  0.000000

  -0.000004  0.000015  0.000000
  0.000015  0.000004  0.000000
  0.000000  0.000000  0.000000

  -0.000004  0.000014  0.000000
  0.000014  0.000004  0.000000
  0.000000  0.000000  0.000000

  -0.000003  0.000014  0.000000
  0.000014  0.000005  0.000000
  0.000000  0.000000  0.000000

  -0.000002  0.000009  0.000000
  0.000009  0.000010  0.000000
  0.000000  0.000000  0.000000

  -0.000002  0.000012  0.000000
  0.000012  0.000007  0.000000
  0.000000  0.000000  0.000000

  -0.000003  0.000011  0.000000
  0.000011  0.000008  0.000000
  0.000000  0.000000  0.000000

  -0.000002  0.000012  0.000000
  0.000012  0.000006  0.000000
  0.000000  0.000000  0.000000

  -0.000002  0.000010  0.000000
  0.000010  0.000008  0.000000
  0.000000  0.000000  0.000000

  -0.000002  0.000010  0.000000
  0.000010  0.000009  0.000000
  0.000000  0.000000  0.000000

  -0.000002  0.000010  0.000000
  0.000010  0.000006  0.000000
  0.000000  0.000000  0.000000

  -0.000002  0.000009  0.000000
  0.000009  0.000009  0.000000
  0.000000  0.000000  0.000000

  -0.000003  0.000013  0.000000
  0.000013  0.000006  0.000000
  0.000000  0.000000  0.000000

  -0.000003  0.000013  0.000000
  0.000013  0.000005  0.000000
  0.000000  0.000000  0.000000

  -0.000002  0.000013  0.000000
  0.000013  0.000004  0.000000
  0.000000  0.000000  0.000000

  -0.000003  0.000014  0.000000
  0.000014  0.000004  0.000000
  0.000000  0.000000  0.000000

  -0.000003  0.000013  0.000000
  0.000013  0.000005  0.000000
  0.000000  0.000000  0.000000

  -0.000003  0.000011  0.000000
  0.000011  0.000007  0.000000
  0.000000  0.000000  0.000000

  -0.000002  0.000012  0.000000
  0.000012  0.000004  0.000000
  0.000000  0.000000  0.000000

  -0.000003  0.000012  0.000000
  0.000012  0.000006  0.000000
  0.000000  0.000000  0.000000

  -0.000002  0.000012  0.000000
  0.000012  0.000003  0.000000
  0.000000  0.000000  0.000000

  -0.000002  0.000010  0.000000
  0.000010  0.000005  0.000000
  0.000000  0.000000  0.000000

  -0.000003  0.000014  0.000000
  0.000014  0.000003  0.000000
  0.000000  0.000000  0.000000

  -0.000003  0.000013  0.000000
  0.000013  0.000004  0.000000
  0.000000  0.000000  0.000000

  -0.000003  0.000012  0.000000
  0.000012  0.000003  0.000000
  0.000000  0.000000  0.000000

  -0.000004  0.000012  0.000000
  0.000012  0.000003  0.000000
  0.000000  0.000000  0.000000

  -0.000003  0.000013  0.000000
  0.000013  0.000002  0.000000
  0.000000  0.000000  0.000000

  -0.000004  0.000012  0.000000
  0.000012  0.000001  0.000000
  0.000000  0.000000  0.000000

  -0.000005  0.000013  0.000000
  0.000013  0.000002  0.000000
  0.000000  0.000000  0.000000

  -0.000004  0.000013  0.000000
  0.000013  0.000001  0.000000
  0.000000  0.000000  0.000000

  -0.000004  0.000013  0.000000
  0.000013  0.000002  0.000000
  0.000000  0.000000  0.000000

  -0.000004  0.000014  0.000000
  0.000014  0.000002  0.000000
  0.000000  0.000000  0.000000

  -0.000002  0.000010  0.000000
  0.000010  0.000008  0.000000
  0.000000  0.000000  0.000000

  -0.000001  0.000009  0.000000
  0.000009  0.000007  0.000000
  0.000000  0.000000  0.000000

  -0.000002  0.000008  0.000000
  0.000008  0.000009  0.000000
  0.000000  0.000000  0.000000

  -0.000002  0.000008  0.000000
  0.000008  0.000010  0.000000
  0.000000  0.000000  0.000000

  -0.000001  0.000007  0.000000
  0.000007  0.000010  0.000000
  0.000000  0.000000  0.000000

  -0.000003  0.000014  0.000000
  0.000014  0.000002  0.000000
  0.000000  0.000000  0.000000

  -0.000001  0.000008  0.000000
  0.000008  0.000006  0.000000
  0.000000  0.000000  0.000000

  -0.000001  0.000007  0.000000
  0.000007  0.000008  0.000000
  0.000000  0.000000  0.000000

  -0.000003  0.000014  0.000000
  0.000014  0.000003  0.000000
  0.000000  0.000000  0.000000

  -0.000003  0.000015  0.000000
  0.000015  0.000003  0.000000
  0.000000  0.000000  0.000000

  -0.000003  0.000015  0.000000
  0.000015  0.000002  0.000000
  0.000000  0.000000  0.000000

  -0.000003  0.000015  0.000000
  0.000015  0.000002  0.000000
  0.000000  0.000000  0.000000

  -0.000003  0.000015  0.000000
  0.000015  0.000002  0.000000
  0.000000  0.000000  0.000000

  -0.000003  0.000016  0.000000
  0.000016  0.000001  0.000000
  0.000000  0.000000  0.000000

  -0.000003  0.000016  0.000000
  0.000016  0.000001  0.000000
  0.000000  0.000000  0.000000

  -0.000003  0.000015  0.000000
  0.000015  0.000002  0.000000
  0.000000  0.000000  0.000000

  -0.000003  0.000015  0.000000
  0.000015  0.000001  0.000000
  0.000000  0.000000  0.000000

  -0.000003  0.000015  0.000000
  0.000015  0.000003  0.000000
  0.000000  0.000000  0.000000

  -0.000003  0.000015  0.000000
  0.000015  0.000001  0.000000
  0.000000  0.000000  0.000000

  -0.000003  0.000015  0.000000
  0.000015  0.000002  0.000000
  0.000000  0.000000  0.000000

  -0.000003  0.000014  0.000000
  0.000014  0.000002  0.000000
  0.000000  0.000000  0.000000

  -0.000003  0.000015  0.000000
  0.000015  0.000001  0.000000
  0.000000  0.000000  0.000000

  -0.000003  0.000015  0.000000
  0.000015  0.000001  0.000000
  0.000000  0.000000  0.000000

  -0.000003  0.000015  0.000000
  0.000015  0.000001  0.000000
  0.000000  0.000000  0.000000

  -0.000003  0.000015  0.000000
  0.000015  0.000001  0.000000
  0.000000  0.000000  0.000000

  -0.000004  0.000015  0.000000
  0.000015  0.000002  0.000000
  0.000000  0.000000  0.000000

  -0.000004  0.000015  0.000000
  0.000015  0.000001  0.000000
  0.000000  0.000000  0.000000

  -0.000003  0.000015  0.000000
  0.000015  0.000001  0.000000
  0.000000  0.000000  0.000000

  -0.000003  0.000015  0.000000
  0.000015  0.000000  0.000000
  0.000000  0.000000  0.000000

  -0.000003  0.000013  0.000000
  0.000013  0.000003  0.000000
  0.000000  0.000000  0.000000

  -0.000003  0.000014  0.000000
  0.000014  0.000003  0.000000
  0.000000  0.000000  0.000000

  -0.000003  0.000010  0.000000
  0.000010  0.000006  0.000000
  0.000000  0.000000  0.000000

  -0.000002  0.000010  0.000000
  0.000010  0.000004  0.000000
  0.000000  0.000000  0.000000

  -0.000003  0.000015  0.000000
  0.000015  0.000000  0.000000
  0.000000  0.000000  0.000000

  -0.000002  0.000015  0.000000
  0.000015  0.000000  0.000000
  0.000000  0.000000  0.000000

  -0.000003  0.000016  0.000000
  0.000016  -0.000000  0.000000
  0.000000  0.000000  0.000000

  -0.000002  0.000015  0.000000
  0.000015  -0.000000  0.000000
  0.000000  0.000000  0.000000

  -0.000002  0.000008  0.000000
  0.000008  0.000012  0.000000
  0.000000  0.000000  0.000000

  -0.000003  0.000015  0.000000
  0.000015  0.000000  0.000000
  0.000000  0.000000  0.000000

  -0.000003  0.000016  0.000000
  0.000016  -0.000001  0.000000
  0.000000  0.000000  0.000000

  -0.000003  0.000015  0.000000
  0.000015  -0.000000  0.000000
  0.000000  0.000000  0.000000

  -0.000003  0.000015  0.000000
  0.000015  -0.000001  0.000000
  0.000000  0.000000  0.000000

  -0.000003  0.000016  0.000000
  0.000016  -0.000001  0.000000
  0.000000  0.000000  0.000000

  -0.000003  0.000016  0.000000
  0.000016  0.000000  0.000000
  0.000000  0.000000  0.000000

  -0.000004  0.000015  0.000000
  0.000015  -0.000001  0.000000
  0.000000  0.000000  0.000000

  -0.000003  0.000015  0.000000
  0.000015  -0.000002  0.000000
  0.000000  0.000000  0.000000

  -0.000002  0.000015  0.000000
  0.000015  -0.000000  0.000000
  0.000000  0.000000  0.000000

  -0.000003  0.000016  0.000000
  0.000016  -0.000002  0.000000
  0.000000  0.000000  0.000000

  -0.000003  0.000015  0.000000
  0.000015  -0.000002  0.000000
  0.000000  0.000000  0.000000

  -0.000003  0.000015  0.000000
  0.000015  -0.000003  0.000000
  0.000000  0.000000  0.000000

  -0.000003  0.000015  0.000000
  0.000015  -0.000002  0.000000
  0.000000  0.000000  0.000000

  -0.000003  0.000016  0.000000
  0.000016  -0.000001  0.000000
  0.000000  0.000000  0.000000

  -0.000002  0.000015  0.000000
  0.000015  -0.000002  0.000000
  0.000000  0.000000  0.000000

  -0.000002  0.000015  0.000000
  0.000015  -0.000001  0.000000
  0.000000  0.000000  0.000000

  -0.000001  0.000014  0.000000
  0.000014  -0.000002  0.000000
  0.000000  0.000000  0.000000

  -0.000001  0.000014  0.000000
  0.000014  -0.000001  0.000000
  0.000000  0.000000  0.000000

  -0.000002  0.000015  0.000000
  0.000015  -0.000002  0.000000
  0.000000  0.000000  0.000000

  -0.000001  0.000014  0.000000
  0.000014  -0.000001  0.000000
  0.000000  0.000000  0.000000

  -0.000000  0.000015  0.000000
  0.000015  -0.000001  0.000000
  0.000000  0.000000  0.000000

  -0.000002  0.000014  0.000000
  0.000014  -0.000003  0.000000
  0.000000  0.000000  0.000000

  -0.000001  0.000013  0.000000
  0.000013  -0.000003  0.000000
  0.000000  0.000000  0.000000

  -0.000002  0.000006  0.000000
  0.000006  0.000010  0.000000
  0.000000  0.000000  0.000000

  -0.000003  0.000016  0.000000
  0.000016  -0.000000  0.000000
  0.000000  0.000000  0.000000

  -0.000004  0.000016  0.000000
  0.000016  -0.000003  0.000000
  0.000000  0.000000  0.000000

  -0.000003  0.000015  0.000000
  0.000015  0.000002  0.000000
  0.000000  0.000000  0.000000

  -0.000004  0.000016  0.000000
  0.000016  -0.000002  0.000000
  0.000000  0.000000  0.000000

  -0.000002  0.000009  0.000000
  0.000009  0.000012  0.000000
  0.000000  0.000000  0.000000

  -0.000002  0.000008  0.000000
  0.000008  0.000013  0.000000
  0.000000  0.000000  0.000000

  -0.000001  0.000005  0.000000
  0.000005  0.000015  0.000000
  0.000000  0.000000  0.000000

  -0.000003  0.000016  0.000000
  0.000016  0.000000  0.000000
  0.000000  0.000000  0.000000

  -0.000003  0.000013  0.000000
  0.000013  0.000007  0.000000
  0.000000  0.000000  0.000000

  -0.000004  0.000014  0.000000
  0.000014  -0.000004  0.000000
  0.000000  0.000000  0.000000

  -0.000004  0.000015  0.000000
  0.000015  -0.000005  0.000000
  0.000000  0.000000  0.000000

  -0.000004  0.000014  0.000000
  0.000014  -0.000005  0.000000
  0.000000  0.000000  0.000000

  -0.000004  0.000013  0.000000
  0.000013  -0.000006  0.000000
  0.000000  0.000000  0.000000

  -0.000004  0.000016  0.000000
  0.000016  -0.000004  0.000000
  0.000000  0.000000  0.000000

  -0.000005  0.000015  0.000000
  0.000015  -0.000002  0.000000
  0.000000  0.000000  0.000000

  -0.000004  0.000015  0.000000
  0.000015  -0.000002  0.000000
  0.000000  0.000000  0.000000

  -0.000004  0.000015  0.000000
  0.000015  -0.000007  0.000000
  0.000000  0.000000  0.000000

  -0.000004  0.000014  0.000000
  0.000014  -0.000007  0.000000
  0.000000  0.000000  0.000000

  -0.000003  0.000014  0.000000
  0.000014  -0.000005  0.000000
  0.000000  0.000000  0.000000

  -0.000001  0.000006  0.000000
  0.000006  0.000012  0.000000
  0.000000  0.000000  0.000000

  -0.000003  0.000014  0.000000
  0.000014  -0.000004  0.000000
  0.000000  0.000000  0.000000

  -0.000003  0.000015  0.000000
  0.000015  -0.000004  0.000000
  0.000000  0.000000  0.000000

  -0.000003  0.000009  0.000000
  0.000009  0.000015  0.000000
  0.000000  0.000000  0.000000

  -0.000004  0.000008  0.000000
  0.000008  0.000018  0.000000
  0.000000  0.000000  0.000000

  -0.000003  0.000008  0.000000
  0.000008  0.000016  0.000000
  0.000000  0.000000  0.000000

  -0.000002  0.000008  0.000000
  0.000008  0.000007  0.000000
  0.000000  0.000000  0.000000

  -0.000001  0.000005  0.000000
  0.000005  0.000016  0.000000
  0.000000  0.000000  0.000000

  -0.000002  0.000005  0.000000
  0.000005  0.000017  0.000000
  0.000000  0.000000  0.000000

  -0.000002  0.000006  0.000000
  0.000006  0.000014  0.000000
  0.000000  0.000000  0.000000

  -0.000002  0.000005  0.000000
  0.000005  0.000019  0.000000
  0.000000  0.000000  0.000000

  -0.000013  0.000013  0.000000
  0.000013  -0.000001  0.000000
  0.000000  0.000000  0.000000

  -0.000009  0.000016  0.000000
  0.000016  -0.000007  0.000000
  0.000000  0.000000  0.000000

  -0.000010  0.000015  0.000000
  0.000015  -0.000007  0.000000
  0.000000  0.000000  0.000000

  -0.000003  -0.000007  0.000000
  -0.000007  0.000048  0.000000
  0.000000  0.000000  0.000000

  -0.000001  -0.000006  0.000000
  -0.000006  0.000043  0.000000
  0.000000  0.000000  0.000000

  -0.000003  0.000006  0.000000
  0.000006  0.000022  0.000000
  0.000000  0.000000  0.000000

  -0.000017  0.000025  0.000000
  0.000025  -0.000048  0.000000
  0.000000  0.000000  0.000000

  -0.000004  0.000006  0.000000
  0.000006  0.000021  0.000000
  0.000000  0.000000  0.000000

  -0.000014  0.000012  0.000000
  0.000012  0.000003  0.000000
  0.000000  0.000000  0.000000

  -0.000021  0.000025  0.000000
  0.000025  -0.000038  0.000000
  0.000000  0.000000  0.000000

  -0.000020  0.000029  0.000000
  0.000029  -0.000047  0.000000
  0.000000  0.000000  0.000000

  -0.000022  0.000025  0.000000
  0.000025  -0.000037  0.000000
  0.000000  0.000000  0.000000

  -0.000022  0.000028  0.000000
  0.000028  -0.000047  0.000000
  0.000000  0.000000  0.000000

  -0.000019  0.000025  0.000000
  0.000025  -0.000037  0.000000
  0.000000  0.000000  0.000000

  -0.000020  0.000029  0.000000
  0.000029  -0.000046  0.000000
  0.000000  0.000000  0.000000

  -0.000021  0.000032  0.000000
  0.000032  -0.000056  0.000000
  0.000000  0.000000  0.000000

  -0.000020  0.000032  0.000000
  0.000032  -0.000057  0.000000
  0.000000  0.000000  0.000000

  -0.000021  0.000031  0.000000
  0.000031  -0.000057  0.000000
  0.000000  0.000000  0.000000

  -0.000020  0.000036  0.000000
  0.000036  -0.000068  0.000000
  0.000000  0.000000  0.000000

  -0.000019  0.000034  0.000000
  0.000034  -0.000068  0.000000
  0.000000  0.000000  0.000000

  0.000052  -0.000047  0.000000
  -0.000047  0.000031  0.000000
  0.000000  0.000000  0.000000

  0.000045  -0.000050  0.000000
  -0.000050  0.000031  0.000000
  0.000000  0.000000  0.000000

  0.000044  -0.000039  0.000000
  -0.000039  0.000024  0.000000
  0.000000  0.000000  0.000000

  -0.000005  0.000016  0.000000
  0.000016  -0.000005  0.000000
  0.000000  0.000000  0.000000

  0.000009  -0.000024  0.000000
  -0.000024  0.000065  0.000000
  0.000000  0.000000  0.000000

  0.000005  -0.000025  0.000000
  -0.000025  0.000066  0.000000
  0.000000  0.000000  0.000000

  -0.000000  -0.000001  0.000000
  -0.000001  0.000030  0.000000
  0.000000  0.000000  0.000000

  -0.000002  0.000001  0.000000
  0.000001  0.000030  0.000000
  0.000000  0.000000  0.000000

  -0.000001  0.000001  0.000000
  0.000001  0.000028  0.000000
  0.000000  0.000000  0.000000

  -0.000002  0.000000  0.000000
  0.000000  0.000032  0.000000
  0.000000  0.000000  0.000000

  -0.000000  -0.000002  0.000000
  -0.000002  0.000031  0.000000
  0.000000  0.000000  0.000000

  -0.000001  0.000000  0.000000
  0.000000  0.000029  0.000000
  0.000000  0.000000  0.000000

  -0.000003  0.000003  0.000000
  0.000003  0.000029  0.000000
  0.000000  0.000000  0.000000

  -0.000002  -0.000000  0.000000
  -0.000000  0.000034  0.000000
  0.000000  0.000000  0.000000

  -0.000000  -0.000002  0.000000
  -0.000002  0.000033  0.000000
  0.000000  0.000000  0.000000

  -0.000001  -0.000000  0.000000
  -0.000000  0.000032  0.000000
  0.000000  0.000000  0.000000

  -0.000002  -0.000001  0.000000
  -0.000001  0.000036  0.000000
  0.000000  0.000000  0.000000

  -0.000003  0.000001  0.000000
  0.000001  0.000032  0.000000
  0.000000  0.000000  0.000000

  -0.000003  0.000002  0.000000
  0.000002  0.000030  0.000000
  0.000000  0.000000  0.000000

  -0.000000  -0.000003  0.000000
  -0.000003  0.000035  0.000000
  0.000000  0.000000  0.000000

  -0.000001  -0.000005  0.000000
  -0.000005  0.000040  0.000000
  0.000000  0.000000  0.000000

  -0.000001  -0.000001  0.000000
  -0.000001  0.000033  0.000000
  0.000000  0.000000  0.000000

  -0.000003  -0.000000  0.000000
  -0.000000  0.000034  0.000000
  0.000000  0.000000  0.000000

  -0.000002  0.000001  0.000000
  0.000001  0.000030  0.000000
  0.000000  0.000000  0.000000

  -0.000004  0.000003  0.000000
  0.000003  0.000030  0.000000
  0.000000  0.000000  0.000000

  -0.000003  0.000004  0.000000
  0.000004  0.000027  0.000000
  0.000000  0.000000  0.000000

  -0.000003  -0.000003  0.000000
  -0.000003  0.000038  0.000000
  0.000000  0.000000  0.000000

  -0.000002  0.000002  0.000000
  0.000002  0.000028  0.000000
  0.000000  0.000000  0.000000

  -0.000002  0.000003  0.000000
  0.000003  0.000025  0.000000
  0.000000  0.000000  0.000000

  -0.000002  0.000004  0.000000
  0.000004  0.000024  0.000000
  0.000000  0.000000  0.000000

  -0.000016  0.000012  0.000000
  0.000012  -0.000002  0.000000
  0.000000  0.000000  0.000000

  0.000004  -0.000016  0.000000
  -0.000016  0.000058  0.000000
  0.000000  0.000000  0.000000

  0.000000  -0.000016  0.000000
  -0.000016  0.000059  0.000000
  0.000000  0.000000  0.000000

  0.000001  -0.000013  0.000000
  -0.000013  0.000053  0.000000
  0.000000  0.000000  0.000000

  -0.000001  -0.000012  0.000000
  -0.000012  0.000056  0.000000
  0.000000  0.000000  0.000000

  0.000004  -0.000015  0.000000
  -0.000015  0.000055  0.000000
  0.000000  0.000000  0.000000

  -0.000150  0.000086  0.000000
  0.000086  -0.000051  0.000000
  0.000000  0.000000  0.000000

  -0.000153  0.000099  0.000000
  0.000099  -0.000068  0.000000
  0.000000  0.000000  0.000000

  -0.000024  0.000012  0.000000
  0.000012  -0.000003  0.000000
  0.000000  0.000000  0.000000

  0.000023  -0.000042  0.000000
  -0.000042  0.000075  0.000000
  0.000000  0.000000  0.000000

  0.000019  -0.000044  0.000000
  -0.000044  0.000074  0.000000
  0.000000  0.000000  0.000000

  -0.000008  0.000015  0.000000
  0.000015  -0.000029  0.000000
  0.000000  0.000000  0.000000

  -0.000007  0.000018  0.000000
  0.000018  -0.000034  0.000000
  0.000000  0.000000  0.000000

  -0.000001  0.000013  0.000000
  0.000013  -0.000001  0.000000
  0.000000  0.000000  0.000000

  0.000008  -0.000024  0.000000
  -0.000024  0.000065  0.000000
  0.000000  0.000000  0.000000

  0.000004  -0.000024  0.000000
  -0.000024  0.000066  0.000000
  0.000000  0.000000  0.000000

  -0.000032  0.000009  0.000000
  0.000009  -0.000011  0.000000
  0.000000  0.000000  0.000000

  0.000168  -0.000054  0.000000
  -0.000054  0.000017  0.000000
  0.000000  0.000000  0.000000

  0.000167  -0.000056  0.000000
  -0.000056  0.000009  0.000000
  0.000000  0.000000  0.000000

  0.000148  -0.000048  0.000000
  -0.000048  0.000014  0.000000
  0.000000  0.000000  0.000000

  0.000146  -0.000047  0.000000
  -0.000047  0.000014  0.000000
  0.000000  0.000000  0.000000

  0.000106  -0.000075  0.000000
  -0.000075  0.000054  0.000000
  0.000000  0.000000  0.000000

  -0.000058  0.000048  0.000000
  0.000048  -0.000056  0.000000
  0.000000  0.000000  0.000000

  0.000141  -0.000072  0.000000
  -0.000072  0.000036  0.000000
  0.000000  0.000000  0.000000

  0.000190  -0.000018  0.000000
  -0.000018  0.000002  0.000000
  0.000000  0.000000  0.000000

  -0.000003  -0.000012  0.000000
  -0.000012  0.000008  0.000000
  0.000000  0.000000  0.000000

  0.000013  -0.000037  0.000000
  -0.000037  0.000060  0.000000
  0.000000  0.000000  0.000000

  -0.000002  -0.000008  0.000000
  -0.000008  0.000043  0.000000
  0.000000  0.000000  0.000000

  0.000149  -0.000065  0.000000
  -0.000065  0.000028  0.000000
  0.000000  0.000000  0.000000

  0.000147  -0.000068  0.000000
  -0.000068  0.000021  0.000000
  0.000000  0.000000  0.000000

  0.000132  -0.000060  0.000000
  -0.000060  0.000026  0.000000
  0.000000  0.000000  0.000000

  0.000130  -0.000063  0.000000
  -0.000063  0.000019  0.000000
  0.000000  0.000000  0.000000

  0.000146  -0.000069  0.000000
  -0.000069  0.000023  0.000000
  0.000000  0.000000  0.000000

  0.000130  -0.000061  0.000000
  -0.000061  0.000028  0.000000
  0.000000  0.000000  0.000000

  0.000147  -0.000067  0.000000
  -0.000067  0.000030  0.000000
  0.000000  0.000000  0.000000

  0.000128  -0.000065  0.000000
  -0.000065  0.000020  0.000000
  0.000000  0.000000  0.000000

  0.000142  -0.000073  0.000000
  -0.000073  0.000024  0.000000
  0.000000  0.000000  0.000000

  0.000115  -0.000055  0.000000
  -0.000055  0.000023  0.000000
  0.000000  0.000000  0.000000

  0.000113  -0.000058  0.000000
  -0.000058  0.000016  0.000000
  0.000000  0.000000  0.000000

  0.000099  -0.000048  0.000000
  -0.000048  0.000018  0.000000
  0.000000  0.000000  0.000000

  0.000098  -0.000050  0.000000
  -0.000050  0.000019  0.000000
  0.000000  0.000000  0.000000

  0.000113  -0.000056  0.000000
  -0.000056  0.000023  0.000000
  0.000000  0.000000  0.000000

  0.000116  -0.000054  0.000000
  -0.000054  0.000021  0.000000
  0.000000  0.000000  0.000000

  0.000098  -0.000052  0.000000
  -0.000052  0.000011  0.000000
  0.000000  0.000000  0.000000

  0.000112  -0.000059  0.000000
  -0.000059  0.000016  0.000000
  0.000000  0.000000  0.000000

  0.000097  -0.000051  0.000000
  -0.000051  0.000020  0.000000
  0.000000  0.000000  0.000000

  0.000096  -0.000053  0.000000
  -0.000053  0.000013  0.000000
  0.000000  0.000000  0.000000

  0.000111  -0.000060  0.000000
  -0.000060  0.000018  0.000000
  0.000000  0.000000  0.000000

  0.000115  -0.000057  0.000000
  -0.000057  0.000014  0.000000
  0.000000  0.000000  0.000000

  0.000101  -0.000048  0.000000
  -0.000048  0.000017  0.000000
  0.000000  0.000000  0.000000

  0.000116  -0.000057  0.000000
  -0.000057  0.000013  0.000000
  0.000000  0.000000  0.000000

  0.000099  -0.000051  0.000000
  -0.000051  0.000010  0.000000
  0.000000  0.000000  0.000000

  0.000097  -0.000053  0.000000
  -0.000053  0.000012  0.000000
  0.000000  0.000000  0.000000

  0.000110  -0.000075  0.000000
  -0.000075  0.000051  0.000000
  0.000000  0.000000  0.000000

  0.000108  -0.000079  0.000000
  -0.000079  0.000046  0.000000
  0.000000  0.000000  0.000000

  0.000099  -0.000068  0.000000
  -0.000068  0.000045  0.000000
  0.000000  0.000000  0.000000

  0.000096  -0.000068  0.000000
  -0.000068  0.000047  0.000000
  0.000000  0.000000  0.000000

  -0.000112  0.000059  0.000000
  0.000059  -0.000049  0.000000
  0.000000  0.000000  0.000000

  0.000052  -0.000062  0.000000
  -0.000062  0.000073  0.000000
  0.000000  0.000000  0.000000

  -0.000032  0.000005  0.000000
  0.000005  -0.000010  0.000000
  0.000000  0.000000  0.000000

  0.000028  -0.000033  0.000000
  -0.000033  0.000027  0.000000
  0.000000  0.000000  0.000000

  0.000031  -0.000046  0.000000
  -0.000046  0.000032  0.000000
  0.000000  0.000000  0.000000

  0.000043  -0.000058  0.000000
  -0.000058  0.000077  0.000000
  0.000000  0.000000  0.000000

  0.000039  -0.000060  0.000000
  -0.000060  0.000075  0.000000
  0.000000  0.000000  0.000000

  0.000036  -0.000051  0.000000
  -0.000051  0.000070  0.000000
  0.000000  0.000000  0.000000

  0.000031  -0.000054  0.000000
  -0.000054  0.000069  0.000000
  0.000000  0.000000  0.000000

  0.000035  -0.000060  0.000000
  -0.000060  0.000077  0.000000
  0.000000  0.000000  0.000000

  0.000030  -0.000046  0.000000
  -0.000046  0.000063  0.000000
  0.000000  0.000000  0.000000

  0.000029  -0.000046  0.000000
  -0.000046  0.000064  0.000000
  0.000000  0.000000  0.000000

  0.000049  -0.000061  0.000000
  -0.000061  0.000076  0.000000
  0.000000  0.000000  0.000000

  0.000045  -0.000064  0.000000
  -0.000064  0.000075  0.000000
  0.000000  0.000000  0.000000

  0.000043  -0.000056  0.000000
  -0.000056  0.000069  0.000000
  0.000000  0.000000  0.000000

  0.000041  -0.000055  0.000000
  -0.000055  0.000069  0.000000
  0.000000  0.000000  0.000000

  0.000036  -0.000057  0.000000
  -0.000057  0.000068  0.000000
  0.000000  0.000000  0.000000

  0.000042  -0.000063  0.000000
  -0.000063  0.000075  0.000000
  0.000000  0.000000  0.000000

  0.000047  -0.000060  0.000000
  -0.000060  0.000076  0.000000
  0.000000  0.000000  0.000000

  0.000035  -0.000049  0.000000
  -0.000049  0.000062  0.000000
  0.000000  0.000000  0.000000

  0.000033  -0.000048  0.000000
  -0.000048  0.000063  0.000000
  0.000000  0.000000  0.000000

  0.000038  -0.000059  0.000000
  -0.000059  0.000068  0.000000
  0.000000  0.000000  0.000000

  0.000036  -0.000049  0.000000
  -0.000049  0.000061  0.000000
  0.000000  0.000000  0.000000

  0.000030  -0.000052  0.000000
  -0.000052  0.000061  0.000000
  0.000000  0.000000  0.000000

  0.000035  -0.000056  0.000000
  -0.000056  0.000068  0.000000
  0.000000  0.000000  0.000000

  0.000032  -0.000047  0.000000
  -0.000047  0.000063  0.000000
  0.000000  0.000000  0.000000

  0.000027  -0.000050  0.000000
  -0.000050  0.000062  0.000000
  0.000000  0.000000  0.000000

  0.000033  -0.000055  0.000000
  -0.000055  0.000069  0.000000
  0.000000  0.000000  0.000000

  0.000026  -0.000042  0.000000
  -0.000042  0.000055  0.000000
  0.000000  0.000000  0.000000

  0.000024  -0.000041  0.000000
  -0.000041  0.000056  0.000000
  0.000000  0.000000  0.000000

  0.000032  -0.000053  0.000000
  -0.000053  0.000057  0.000000
  0.000000  0.000000  0.000000

  0.000028  -0.000051  0.000000
  -0.000051  0.000062  0.000000
  0.000000  0.000000  0.000000

  0.000027  -0.000043  0.000000
  -0.000043  0.000056  0.000000
  0.000000  0.000000  0.000000

  0.000023  -0.000045  0.000000
  -0.000045  0.000054  0.000000
  0.000000  0.000000  0.000000

  0.000020  -0.000036  0.000000
  -0.000036  0.000048  0.000000
  0.000000  0.000000  0.000000

  0.000018  -0.000035  0.000000
  -0.000035  0.000049  0.000000
  0.000000  0.000000  0.000000

  0.000023  -0.000044  0.000000
  -0.000044  0.000053  0.000000
  0.000000  0.000000  0.000000

  0.000016  -0.000035  0.000000
  -0.000035  0.000051  0.000000
  0.000000  0.000000  0.000000

  0.000018  -0.000037  0.000000
  -0.000037  0.000044  0.000000
  0.000000  0.000000  0.000000

  0.000020  -0.000043  0.000000
  -0.000043  0.000055  0.000000
  0.000000  0.000000  0.000000

  0.000017  -0.000034  0.000000
  -0.000034  0.000049  0.000000
  0.000000  0.000000  0.000000

  0.000010  -0.000036  0.000000
  -0.000036  0.000050  0.000000
  0.000000  0.000000  0.000000

  0.000020  -0.000043  0.000000
  -0.000043  0.000054  0.000000
  0.000000  0.000000  0.000000

  0.000016  -0.000034  0.000000
  -0.000034  0.000051  0.000000
  0.000000  0.000000  0.000000

  0.000023  -0.000040  0.000000
  -0.000040  0.000057  0.000000
  0.000000  0.000000  0.000000

  0.000024  -0.000048  0.000000
  -0.000048  0.000062  0.000000
  0.000000  0.000000  0.000000

  0.000023  -0.000040  0.000000
  -0.000040  0.000057  0.000000
  0.000000  0.000000  0.000000

  0.000018  -0.000042  0.000000
  -0.000042  0.000056  0.000000
  0.000000  0.000000  0.000000

  0.000023  -0.000047  0.000000
  -0.000047  0.000063  0.000000
  0.000000  0.000000  0.000000

  0.000015  -0.000033  0.000000
  -0.000033  0.000051  0.000000
  0.000000  0.000000  0.000000

  0.000018  -0.000041  0.000000
  -0.000041  0.000055  0.000000
  0.000000  0.000000  0.000000

  0.000026  -0.000049  0.000000
  -0.000049  0.000062  0.000000
  0.000000  0.000000  0.000000

  0.000016  -0.000039  0.000000
  -0.000039  0.000046  0.000000
  0.000000  0.000000  0.000000

  0.000021  -0.000038  0.000000
  -0.000038  0.000058  0.000000
  0.000000  0.000000  0.000000

  0.000023  -0.000046  0.000000
  -0.000046  0.000063  0.000000
  0.000000  0.000000  0.000000

  0.000020  -0.000038  0.000000
  -0.000038  0.000059  0.000000
  0.000000  0.000000  0.000000

  0.000026  -0.000043  0.000000
  -0.000043  0.000066  0.000000
  0.000000  0.000000  0.000000

  0.000016  -0.000041  0.000000
  -0.000041  0.000057  0.000000
  0.000000  0.000000  0.000000

  0.000014  -0.000033  0.000000
  -0.000033  0.000054  0.000000
  0.000000  0.000000  0.000000

  0.000021  -0.000040  0.000000
  -0.000040  0.000055  0.000000
  0.000000  0.000000  0.000000

  0.000014  -0.000033  0.000000
  -0.000033  0.000053  0.000000
  0.000000  0.000000  0.000000

  0.000013  -0.000034  0.000000
  -0.000034  0.000057  0.000000
  0.000000  0.000000  0.000000

  0.000017  -0.000044  0.000000
  -0.000044  0.000064  0.000000
  0.000000  0.000000  0.000000

  0.000033  -0.000049  0.000000
  -0.000049  0.000071  0.000000
  0.000000  0.000000  0.000000

  0.000031  -0.000053  0.000000
  -0.000053  0.000068  0.000000
  0.000000  0.000000  0.000000

  0.000024  -0.000046  0.000000
  -0.000046  0.000054  0.000000
  0.000000  0.000000  0.000000

  0.000029  -0.000043  0.000000
  -0.000043  0.000055  0.000000
  0.000000  0.000000  0.000000

  0.000027  -0.000045  0.000000
  -0.000045  0.000064  0.000000
  0.000000  0.000000  0.000000

  0.000030  -0.000054  0.000000
  -0.000054  0.000070  0.000000
  0.000000  0.000000  0.000000

  0.000038  -0.000052  0.000000
  -0.000052  0.000067  0.000000
  0.000000  0.000000  0.000000

  0.000031  -0.000050  0.000000
  -0.000050  0.000073  0.000000
  0.000000  0.000000  0.000000

  0.000039  -0.000059  0.000000
  -0.000059  0.000065  0.000000
  0.000000  0.000000  0.000000

  0.000035  -0.000048  0.000000
  -0.000048  0.000059  0.000000
  0.000000  0.000000  0.000000

  0.000017  -0.000039  0.000000
  -0.000039  0.000046  0.000000
  0.000000  0.000000  0.000000

  0.000013  -0.000037  0.000000
  -0.000037  0.000048  0.000000
  0.000000  0.000000  0.000000

  0.000015  -0.000033  0.000000
  -0.000033  0.000071  0.000000
  0.000000  0.000000  0.000000

  0.000008  -0.000032  0.000000
  -0.000032  0.000072  0.000000
  0.000000  0.000000  0.000000

  -0.000005  0.000013  0.000000
  0.000013  0.000000  0.000000
  0.000000  0.000000  0.000000

  -0.000004  0.000013  0.000000
  0.000013  0.000000  0.000000
  0.000000  0.000000  0.000000

  0.000018  -0.000038  0.000000
  -0.000038  0.000075  0.000000
  0.000000  0.000000  0.000000

  0.000017  -0.000039  0.000000
  -0.000039  0.000072  0.000000
  0.000000  0.000000  0.000000

  0.000020  -0.000035  0.000000
  -0.000035  0.000018  0.000000
  0.000000  0.000000  0.000000

  0.000008  -0.000023  0.000000
  -0.000023  0.000064  0.000000
  0.000000  0.000000  0.000000

  0.000003  -0.000022  0.000000
  -0.000022  0.000065  0.000000
  0.000000  0.000000  0.000000

  0.000035  -0.000052  0.000000
  -0.000052  0.000077  0.000000
  0.000000  0.000000  0.000000

  0.000030  -0.000054  0.000000
  -0.000054  0.000077  0.000000
  0.000000  0.000000  0.000000

  0.000029  -0.000047  0.000000
  -0.000047  0.000070  0.000000
  0.000000  0.000000  0.000000

  0.000028  -0.000046  0.000000
  -0.000046  0.000070  0.000000
  0.000000  0.000000  0.000000

  0.000023  -0.000048  0.000000
  -0.000048  0.000069  0.000000
  0.000000  0.000000  0.000000

  -0.000037  0.000023  0.000000
  0.000023  -0.000020  0.000000
  0.000000  0.000000  0.000000

  0.000104  -0.000075  0.000000
  -0.000075  0.000054  0.000000
  0.000000  0.000000  0.000000

  0.000102  -0.000078  0.000000
  -0.000078  0.000048  0.000000
  0.000000  0.000000  0.000000

  0.000087  -0.000068  0.000000
  -0.000068  0.000050  0.000000
  0.000000  0.000000  0.000000

  0.000047  -0.000054  0.000000
  -0.000054  0.000037  0.000000
  0.000000  0.000000  0.000000

  0.000052  -0.000050  0.000000
  -0.000050  0.000038  0.000000
  0.000000  0.000000  0.000000

  0.000053  -0.000061  0.000000
  -0.000061  0.000045  0.000000
  0.000000  0.000000  0.000000

  0.000059  -0.000061  0.000000
  -0.000061  0.000043  0.000000
  0.000000  0.000000  0.000000

  0.000063  -0.000058  0.000000
  -0.000058  0.000047  0.000000
  0.000000  0.000000  0.000000

  0.000155  -0.000062  0.000000
  -0.000062  0.000025  0.000000
  0.000000  0.000000  0.000000

  0.000153  -0.000065  0.000000
  -0.000065  0.000018  0.000000
  0.000000  0.000000  0.000000

  0.000139  -0.000056  0.000000
  -0.000056  0.000021  0.000000
  0.000000  0.000000  0.000000

  0.000137  -0.000057  0.000000
  -0.000057  0.000022  0.000000
  0.000000  0.000000  0.000000

  0.000136  -0.000060  0.000000
  -0.000060  0.000015  0.000000
  0.000000  0.000000  0.000000

  0.000151  -0.000067  0.000000
  -0.000067  0.000019  0.000000
  0.000000  0.000000  0.000000

  0.000154  -0.000062  0.000000
  -0.000062  0.000025  0.000000
  0.000000  0.000000  0.000000

  0.000122  -0.000051  0.000000
  -0.000051  0.000018  0.000000
  0.000000  0.000000  0.000000

  0.000120  -0.000052  0.000000
  -0.000052  0.000019  0.000000
  0.000000  0.000000  0.000000

  0.000119  -0.000055  0.000000
  -0.000055  0.000012  0.000000
  0.000000  0.000000  0.000000

  0.000134  -0.000062  0.000000
  -0.000062  0.000016  0.000000
  0.000000  0.000000  0.000000

  0.000104  -0.000046  0.000000
  -0.000046  0.000015  0.000000
  0.000000  0.000000  0.000000

  0.000102  -0.000047  0.000000
  -0.000047  0.000016  0.000000
  0.000000  0.000000  0.000000

  0.000118  -0.000053  0.000000
  -0.000053  0.000020  0.000000
  0.000000  0.000000  0.000000

  0.000101  -0.000050  0.000000
  -0.000050  0.000009  0.000000
  0.000000  0.000000  0.000000

  0.000086  -0.000040  0.000000
  -0.000040  0.000012  0.000000
  0.000000  0.000000  0.000000

  0.000084  -0.000042  0.000000
  -0.000042  0.000013  0.000000
  0.000000  0.000000  0.000000

  0.000083  -0.000045  0.000000
  -0.000045  0.000006  0.000000
  0.000000  0.000000  0.000000

  0.000132  -0.000063  0.000000
  -0.000063  0.000017  0.000000
  0.000000  0.000000  0.000000

  0.000068  -0.000035  0.000000
  -0.000035  0.000009  0.000000
  0.000000  0.000000  0.000000

  0.000067  -0.000036  0.000000
  -0.000036  0.000010  0.000000
  0.000000  0.000000  0.000000

  0.000137  -0.000060  0.000000
  -0.000060  0.000014  0.000000
  0.000000  0.000000  0.000000

  0.000123  -0.000050  0.000000
  -0.000050  0.000017  0.000000
  0.000000  0.000000  0.000000

  0.000120  -0.000055  0.000000
  -0.000055  0.000011  0.000000
  0.000000  0.000000  0.000000

  0.000105  -0.000045  0.000000
  -0.000045  0.000014  0.000000
  0.000000  0.000000  0.000000

  0.000102  -0.000050  0.000000
  -0.000050  0.000008  0.000000
  0.000000  0.000000  0.000000

  0.000088  -0.000040  0.000000
  -0.000040  0.000011  0.000000
  0.000000  0.000000  0.000000

  0.000103  -0.000049  0.000000
  -0.000049  0.000007  0.000000
  0.000000  0.000000  0.000000

  0.000089  -0.000039  0.000000
  -0.000039  0.000010  0.000000
  0.000000  0.000000  0.000000

  0.000086  -0.000043  0.000000
  -0.000043  0.000004  0.000000
  0.000000  0.000000  0.000000

  0.000105  -0.000048  0.000000
  -0.000048  0.000007  0.000000
  0.000000  0.000000  0.000000

  0.000088  -0.000043  0.000000
  -0.000043  0.000003  0.000000
  0.000000  0.000000  0.000000

  0.000139  -0.000059  0.000000
  -0.000059  0.000012  0.000000
  0.000000  0.000000  0.000000

  0.000122  -0.000054  0.000000
  -0.000054  0.000010  0.000000
  0.000000  0.000000  0.000000

  0.000108  -0.000044  0.000000
  -0.000044  0.000013  0.000000
  0.000000  0.000000  0.000000

  0.000124  -0.000054  0.000000
  -0.000054  0.000010  0.000000
  0.000000  0.000000  0.000000

  0.000126  -0.000050  0.000000
  -0.000050  0.000015  0.000000
  0.000000  0.000000  0.000000

  0.000142  -0.000058  0.000000
  -0.000058  0.000010  0.000000
  0.000000  0.000000  0.000000

  0.000110  -0.000043  0.000000
  -0.000043  0.000013  0.000000
  0.000000  0.000000  0.000000

  0.000143  -0.000055  0.000000
  -0.000055  0.000021  0.000000
  0.000000  0.000000  0.000000

  0.000157  -0.000056  0.000000
  -0.000056  0.000011  0.000000
  0.000000  0.000000  0.000000

  0.000156  -0.000063  0.000000
  -0.000063  0.000022  0.000000
  0.000000  0.000000  0.000000

  0.000141  -0.000060  0.000000
  -0.000060  0.000018  0.000000
  0.000000  0.000000  0.000000

  0.000149  -0.000049  0.000000
  -0.000049  0.000010  0.000000
  0.000000  0.000000  0.000000

  0.000135  -0.000047  0.000000
  -0.000047  0.000014  0.000000
  0.000000  0.000000  0.000000

  0.000157  -0.000062  0.000000
  -0.000062  0.000011  0.000000
  0.000000  0.000000  0.000000

  0.000134  -0.000055  0.000000
  -0.000055  0.000013  0.000000
  0.000000  0.000000  0.000000

  0.000084  -0.000044  0.000000
  -0.000044  0.000006  0.000000
  0.000000  0.000000  0.000000

  0.000069  -0.000034  0.000000
  -0.000034  0.000008  0.000000
  0.000000  0.000000  0.000000

  0.000068  -0.000038  0.000000
  -0.000038  0.000002  0.000000
  0.000000  0.000000  0.000000

  0.000053  -0.000028  0.000000
  -0.000028  0.000004  0.000000
  0.000000  0.000000  0.000000

  0.000051  -0.000029  0.000000
  -0.000029  0.000006  0.000000
  0.000000  0.000000  0.000000

  0.000092  -0.000038  0.000000
  -0.000038  0.000009  0.000000
  0.000000  0.000000  0.000000

  0.000108  -0.000047  0.000000
  -0.000047  0.000005  0.000000
  0.000000  0.000000  0.000000

  0.000094  -0.000038  0.000000
  -0.000038  0.000008  0.000000
  0.000000  0.000000  0.000000

  0.000112  -0.000048  0.000000
  -0.000048  0.000005  0.000000
  0.000000  0.000000  0.000000

  0.000092  -0.000042  0.000000
  -0.000042  0.000002  0.000000
  0.000000  0.000000  0.000000

  0.000069  -0.000037  0.000000
  -0.000037  0.000001  0.000000
  0.000000  0.000000  0.000000

  0.000071  -0.000034  0.000000
  -0.000034  0.000007  0.000000
  0.000000  0.000000  0.000000

  0.000054  -0.000027  0.000000
  -0.000027  0.000004  0.000000
  0.000000  0.000000  0.000000

  0.000070  -0.000037  0.000000
  -0.000037  0.000000  0.000000
  0.000000  0.000000  0.000000

  0.000052  -0.000031  0.000000
  -0.000031  -0.000002  0.000000
  0.000000  0.000000  0.000000

  0.000073  -0.000033  0.000000
  -0.000033  0.000007  0.000000
  0.000000  0.000000  0.000000

  0.000089  -0.000042  0.000000
  -0.000042  0.000003  0.000000
  0.000000  0.000000  0.000000

  0.000075  -0.000033  0.000000
  -0.000033  0.000006  0.000000
  0.000000  0.000000  0.000000

  0.000056  -0.000027  0.000000
  -0.000027  0.000003  0.000000
  0.000000  0.000000  0.000000

  0.000037  -0.000021  0.000000
  -0.000021  0.000000  0.000000
  0.000000  0.000000  0.000000

  0.000066  -0.000038  0.000000
  -0.000038  0.000003  0.000000
  0.000000  0.000000  0.000000

  0.000051  -0.000031  0.000000
  -0.000031  -0.000002  0.000000
  0.000000  0.000000  0.000000

  0.000035  -0.000021  0.000000
  -0.000021  0.000001  0.000000
  0.000000  0.000000  0.000000

  0.000033  -0.000025  0.000000
  -0.000025  -0.000005  0.000000
  0.000000  0.000000  0.000000

  0.000017  -0.000014  0.000000
  -0.000014  -0.000002  0.000000
  0.000000  0.000000  0.000000

  0.000016  -0.000015  0.000000
  -0.000015  -0.000002  0.000000
  0.000000  0.000000  0.000000

  0.000067  -0.000038  0.000000
  -0.000038  0.000002  0.000000
  0.000000  0.000000  0.000000

  0.000050  -0.000029  0.000000
  -0.000029  0.000006  0.000000
  0.000000  0.000000  0.000000

  0.000049  -0.000032  0.000000
  -0.000032  -0.000000  0.000000
  0.000000  0.000000  0.000000

  0.000033  -0.000022  0.000000
  -0.000022  0.000002  0.000000
  0.000000  0.000000  0.000000

  0.000032  -0.000022  0.000000
  -0.000022  0.000003  0.000000
  0.000000  0.000000  0.000000

  0.000082  -0.000045  0.000000
  -0.000045  0.000007  0.000000
  0.000000  0.000000  0.000000

  0.000066  -0.000037  0.000000
  -0.000037  0.000011  0.000000
  0.000000  0.000000  0.000000

  0.000083  -0.000042  0.000000
  -0.000042  0.000014  0.000000
  0.000000  0.000000  0.000000

  0.000065  -0.000039  0.000000
  -0.000039  0.000004  0.000000
  0.000000  0.000000  0.000000

  0.000081  -0.000046  0.000000
  -0.000046  0.000008  0.000000
  0.000000  0.000000  0.000000

  0.000065  -0.000037  0.000000
  -0.000037  0.000012  0.000000
  0.000000  0.000000  0.000000

  0.000064  -0.000040  0.000000
  -0.000040  0.000005  0.000000
  0.000000  0.000000  0.000000

  0.000080  -0.000046  0.000000
  -0.000046  0.000009  0.000000
  0.000000  0.000000  0.000000

  0.000064  -0.000038  0.000000
  -0.000038  0.000013  0.000000
  0.000000  0.000000  0.000000

  0.000081  -0.000044  0.000000
  -0.000044  0.000016  0.000000
  0.000000  0.000000  0.000000

  0.000063  -0.000040  0.000000
  -0.000040  0.000006  0.000000
  0.000000  0.000000  0.000000

  0.000079  -0.000047  0.000000
  -0.000047  0.000010  0.000000
  0.000000  0.000000  0.000000

  0.000049  -0.000030  0.000000
  -0.000030  0.000007  0.000000
  0.000000  0.000000  0.000000

  0.000048  -0.000032  0.000000
  -0.000032  0.000000  0.000000
  0.000000  0.000000  0.000000

  0.000048  -0.000030  0.000000
  -0.000030  0.000008  0.000000
  0.000000  0.000000  0.000000

  0.000047  -0.000033  0.000000
  -0.000033  0.000001  0.000000
  0.000000  0.000000  0.000000

  0.000031  -0.000023  0.000000
  -0.000023  0.000004  0.000000
  0.000000  0.000000  0.000000

  0.000030  -0.000026  0.000000
  -0.000026  -0.000003  0.000000
  0.000000  0.000000  0.000000

  0.000031  -0.000024  0.000000
  -0.000024  0.000005  0.000000
  0.000000  0.000000  0.000000

  0.000014  -0.000016  0.000000
  -0.000016  -0.000000  0.000000
  0.000000  0.000000  0.000000

  0.000013  -0.000017  0.000000
  -0.000017  0.000001  0.000000
  0.000000  0.000000  0.000000

  0.000064  -0.000039  0.000000
  -0.000039  0.000014  0.000000
  0.000000  0.000000  0.000000

  0.000030  -0.000026  0.000000
  -0.000026  -0.000003  0.000000
  0.000000  0.000000  0.000000

  0.000014  -0.000017  0.000000
  -0.000017  0.000001  0.000000
  0.000000  0.000000  0.000000

  0.000013  -0.000019  0.000000
  -0.000019  -0.000006  0.000000
  0.000000  0.000000  0.000000

  0.000030  -0.000026  0.000000
  -0.000026  -0.000002  0.000000
  0.000000  0.000000  0.000000

  0.000031  -0.000025  0.000000
  -0.000025  -0.000004  0.000000
  0.000000  0.000000  0.000000

  -0.000004  -0.000009  0.000000
  -0.000009  -0.000003  0.000000
  0.000000  0.000000  0.000000

  -0.000003  -0.000010  0.000000
  -0.000010  -0.000002  0.000000
  0.000000  0.000000  0.000000

  0.000031  -0.000024  0.000000
  -0.000024  0.000006  0.000000
  0.000000  0.000000  0.000000

  0.000047  -0.000034  0.000000
  -0.000034  0.000002  0.000000
  0.000000  0.000000  0.000000

  0.000047  -0.000033  0.000000
  -0.000033  0.000002  0.000000
  0.000000  0.000000  0.000000

  0.000031  -0.000025  0.000000
  -0.000025  0.000007  0.000000
  0.000000  0.000000  0.000000

  0.000047  -0.000032  0.000000
  -0.000032  0.000010  0.000000
  0.000000  0.000000  0.000000

  0.000063  -0.000041  0.000000
  -0.000041  0.000007  0.000000
  0.000000  0.000000  0.000000

  0.000048  -0.000032  0.000000
  -0.000032  0.000011  0.000000
  0.000000  0.000000  0.000000

  0.000047  -0.000035  0.000000
  -0.000035  0.000004  0.000000
  0.000000  0.000000  0.000000

  0.000031  -0.000026  0.000000
  -0.000026  0.000007  0.000000
  0.000000  0.000000  0.000000

  0.000030  -0.000028  0.000000
  -0.000028  0.000000  0.000000
  0.000000  0.000000  0.000000

  0.000047  -0.000035  0.000000
  -0.000035  0.000004  0.000000
  0.000000  0.000000  0.000000

  0.000062  -0.000042  0.000000
  -0.000042  0.000008  0.000000
  0.000000  0.000000  0.000000

  0.000031  -0.000027  0.000000
  -0.000027  -0.000001  0.000000
  0.000000  0.000000  0.000000

  0.000014  -0.000018  0.000000
  -0.000018  0.000003  0.000000
  0.000000  0.000000  0.000000

  0.000014  -0.000020  0.000000
  -0.000020  -0.000004  0.000000
  0.000000  0.000000  0.000000

  -0.000003  -0.000010  0.000000
  -0.000010  -0.000002  0.000000
  0.000000  0.000000  0.000000

  -0.000003  -0.000012  0.000000
  -0.000012  -0.000008  0.000000
  0.000000  0.000000  0.000000

  -0.000020  -0.000002  0.000000
  -0.000002  -0.000006  0.000000
  0.000000  0.000000  0.000000

  -0.000020  -0.000003  0.000000
  -0.000003  -0.000005  0.000000
  0.000000  0.000000  0.000000

  -0.000002  -0.000011  0.000000
  -0.000011  -0.000001  0.000000
  0.000000  0.000000  0.000000

  0.000014  -0.000019  0.000000
  -0.000019  -0.000005  0.000000
  0.000000  0.000000  0.000000

  0.000014  -0.000018  0.000000
  -0.000018  0.000002  0.000000
  0.000000  0.000000  0.000000

  -0.000004  -0.000012  0.000000
  -0.000012  -0.000009  0.000000
  0.000000  0.000000  0.000000

  -0.000021  -0.000002  0.000000
  -0.000002  -0.000006  0.000000
  0.000000  0.000000  0.000000

  -0.000004  -0.000012  0.000000
  -0.000012  -0.000009  0.000000
  0.000000  0.000000  0.000000

  -0.000021  -0.000001  0.000000
  -0.000001  -0.000007  0.000000
  0.000000  0.000000  0.000000

  -0.000021  -0.000004  0.000000
  -0.000004  -0.000013  0.000000
  0.000000  0.000000  0.000000

  -0.000005  -0.000011  0.000000
  -0.000011  -0.000010  0.000000
  0.000000  0.000000  0.000000

  -0.000022  -0.000003  0.000000
  -0.000003  -0.000013  0.000000
  0.000000  0.000000  0.000000

  -0.000021  -0.000004  0.000000
  -0.000004  -0.000012  0.000000
  0.000000  0.000000  0.000000

  -0.000019  -0.000004  0.000000
  -0.000004  -0.000012  0.000000
  0.000000  0.000000  0.000000

  -0.000002  -0.000012  0.000000
  -0.000012  -0.000008  0.000000
  0.000000  0.000000  0.000000

  -0.000019  -0.000004  0.000000
  -0.000004  -0.000004  0.000000
  0.000000  0.000000  0.000000

  -0.000018  -0.000005  0.000000
  -0.000005  -0.000012  0.000000
  0.000000  0.000000  0.000000

  -0.000001  -0.000013  0.000000
  -0.000013  -0.000007  0.000000
  0.000000  0.000000  0.000000

  0.000015  -0.000019  0.000000
  -0.000019  0.000003  0.000000
  0.000000  0.000000  0.000000

  0.000014  -0.000021  0.000000
  -0.000021  -0.000004  0.000000
  0.000000  0.000000  0.000000

  -0.000002  -0.000012  0.000000
  -0.000012  0.000000  0.000000
  0.000000  0.000000  0.000000

  0.000015  -0.000021  0.000000
  -0.000021  -0.000003  0.000000
  0.000000  0.000000  0.000000

  -0.000000  -0.000013  0.000000
  -0.000013  0.000001  0.000000
  0.000000  0.000000  0.000000

  0.000015  -0.000020  0.000000
  -0.000020  0.000005  0.000000
  0.000000  0.000000  0.000000

  -0.000017  -0.000005  0.000000
  -0.000005  -0.000003  0.000000
  0.000000  0.000000  0.000000

  0.000000  -0.000014  0.000000
  -0.000014  -0.000007  0.000000
  0.000000  0.000000  0.000000

  -0.000016  -0.000005  0.000000
  -0.000005  -0.000002  0.000000
  0.000000  0.000000  0.000000

  -0.000015  -0.000006  0.000000
  -0.000006  -0.000010  0.000000
  0.000000  0.000000  0.000000

  0.000002  -0.000015  0.000000
  -0.000015  -0.000006  0.000000
  0.000000  0.000000  0.000000

  0.000017  -0.000022  0.000000
  -0.000022  -0.000002  0.000000
  0.000000  0.000000  0.000000

  -0.000033  0.000003  0.000000
  0.000003  -0.000007  0.000000
  0.000000  0.000000  0.000000

  -0.000031  0.000003  0.000000
  0.000003  -0.000007  0.000000
  0.000000  0.000000  0.000000

  0.000047  -0.000033  0.000000
  -0.000033  0.000012  0.000000
  0.000000  0.000000  0.000000

  0.000062  -0.000043  0.000000
  -0.000043  0.000009  0.000000
  0.000000  0.000000  0.000000

  0.000047  -0.000034  0.000000
  -0.000034  0.000013  0.000000
  0.000000  0.000000  0.000000

  0.000063  -0.000041  0.000000
  -0.000041  0.000017  0.000000
  0.000000  0.000000  0.000000

  0.000046  -0.000036  0.000000
  -0.000036  0.000006  0.000000
  0.000000  0.000000  0.000000

  0.000031  -0.000027  0.000000
  -0.000027  0.000008  0.000000
  0.000000  0.000000  0.000000

  0.000031  -0.000028  0.000000
  -0.000028  0.000001  0.000000
  0.000000  0.000000  0.000000

  0.000062  -0.000045  0.000000
  -0.000045  0.000010  0.000000
  0.000000  0.000000  0.000000

  -0.000036  0.000005  0.000000
  0.000005  -0.000009  0.000000
  0.000000  0.000000  0.000000

  -0.000036  0.000004  0.000000
  0.000004  -0.000016  0.000000
  0.000000  0.000000  0.000000

  -0.000054  0.000014  0.000000
  0.000014  -0.000013  0.000000
  0.000000  0.000000  0.000000

  -0.000053  0.000013  0.000000
  0.000013  -0.000012  0.000000
  0.000000  0.000000  0.000000

  -0.000037  0.000004  0.000000
  0.000004  -0.000017  0.000000
  0.000000  0.000000  0.000000

  -0.000054  0.000013  0.000000
  0.000013  -0.000020  0.000000
  0.000000  0.000000  0.000000

  -0.000034  0.000003  0.000000
  0.000003  -0.000016  0.000000
  0.000000  0.000000  0.000000

  -0.000051  0.000012  0.000000
  0.000012  -0.000012  0.000000
  0.000000  0.000000  0.000000

  0.000079  -0.000051  0.000000
  -0.000051  0.000014  0.000000
  0.000000  0.000000  0.000000

  -0.000052  0.000012  0.000000
  0.000012  -0.000020  0.000000
  0.000000  0.000000  0.000000

  0.000048  -0.000031  0.000000
  -0.000031  0.000009  0.000000
  0.000000  0.000000  0.000000

  0.000001  -0.000014  0.000000
  -0.000014  0.000002  0.000000
  0.000000  0.000000  0.000000

  0.000018  -0.000023  0.000000
  -0.000023  -0.000001  0.000000
  0.000000  0.000000  0.000000

  0.000002  -0.000015  0.000000
  -0.000015  0.000005  0.000000
  0.000000  0.000000  0.000000

  0.000018  -0.000022  0.000000
  -0.000022  0.000006  0.000000
  0.000000  0.000000  0.000000

  0.000013  -0.000018  0.000000
  -0.000018  -0.000007  0.000000
  0.000000  0.000000  0.000000

  -0.000004  -0.000009  0.000000
  -0.000009  -0.000004  0.000000
  0.000000  0.000000  0.000000

  -0.000003  -0.000009  0.000000
  -0.000009  -0.000003  0.000000
  0.000000  0.000000  0.000000

  0.000013  -0.000019  0.000000
  -0.000019  -0.000006  0.000000
  0.000000  0.000000  0.000000

  0.000013  -0.000018  0.000000
  -0.000018  -0.000007  0.000000
  0.000000  0.000000  0.000000

  -0.000004  -0.000010  0.000000
  -0.000010  -0.000011  0.000000
  0.000000  0.000000  0.000000

  0.000014  -0.000015  0.000000
  -0.000015  -0.000001  0.000000
  0.000000  0.000000  0.000000

  -0.000003  -0.000008  0.000000
  -0.000008  -0.000004  0.000000
  0.000000  0.000000  0.000000

  -0.000022  -0.000001  0.000000
  -0.000001  -0.000007  0.000000
  0.000000  0.000000  0.000000

  -0.000022  -0.000003  0.000000
  -0.000003  -0.000013  0.000000
  0.000000  0.000000  0.000000

  -0.000040  0.000007  0.000000
  0.000007  -0.000011  0.000000
  0.000000  0.000000  0.000000

  -0.000040  0.000006  0.000000
  0.000006  -0.000010  0.000000
  0.000000  0.000000  0.000000

  -0.000040  0.000005  0.000000
  0.000005  -0.000017  0.000000
  0.000000  0.000000  0.000000

  -0.000059  0.000015  0.000000
  0.000015  -0.000014  0.000000
  0.000000  0.000000  0.000000

  -0.000058  0.000014  0.000000
  0.000014  -0.000013  0.000000
  0.000000  0.000000  0.000000

  -0.000023  -0.000004  0.000000
  -0.000004  -0.000013  0.000000
  0.000000  0.000000  0.000000

  -0.000041  0.000004  0.000000
  0.000004  -0.000017  0.000000
  0.000000  0.000000  0.000000

  -0.000059  0.000015  0.000000
  0.000015  -0.000014  0.000000
  0.000000  0.000000  0.000000

  -0.000059  0.000013  0.000000
  0.000013  -0.000020  0.000000
  0.000000  0.000000  0.000000

  -0.000039  0.000005  0.000000
  0.000005  -0.000017  0.000000
  0.000000  0.000000  0.000000

  -0.000057  0.000014  0.000000
  0.000014  -0.000013  0.000000
  0.000000  0.000000  0.000000

  -0.000039  0.000006  0.000000
  0.000006  -0.000010  0.000000
  0.000000  0.000000  0.000000

  -0.000056  0.000013  0.000000
  0.000013  -0.000020  0.000000
  0.000000  0.000000  0.000000

  -0.000038  0.000005  0.000000
  0.000005  -0.000017  0.000000
  0.000000  0.000000  0.000000

  -0.000056  0.000014  0.000000
  0.000014  -0.000013  0.000000
  0.000000  0.000000  0.000000

  -0.000038  0.000006  0.000000
  0.000006  -0.000010  0.000000
  0.000000  0.000000  0.000000

  -0.000056  0.000012  0.000000
  0.000012  -0.000020  0.000000
  0.000000  0.000000  0.000000

  -0.000074  0.000023  0.000000
  0.000023  -0.000018  0.000000
  0.000000  0.000000  0.000000

  -0.000074  0.000022  0.000000
  0.000022  -0.000023  0.000000
  0.000000  0.000000  0.000000

  -0.000093  0.000032  0.000000
  0.000032  -0.000021  0.000000
  0.000000  0.000000  0.000000

  -0.000092  0.000032  0.000000
  0.000032  -0.000021  0.000000
  0.000000  0.000000  0.000000

  -0.000073  0.000023  0.000000
  0.000023  -0.000017  0.000000
  0.000000  0.000000  0.000000

  -0.000076  0.000021  0.000000
  0.000021  -0.000023  0.000000
  0.000000  0.000000  0.000000

  -0.000093  0.000030  0.000000
  0.000030  -0.000027  0.000000
  0.000000  0.000000  0.000000

  -0.000091  0.000031  0.000000
  0.000031  -0.000028  0.000000
  0.000000  0.000000  0.000000

  -0.000072  0.000022  0.000000
  0.000022  -0.000024  0.000000
  0.000000  0.000000  0.000000

  -0.000089  0.000032  0.000000
  0.000032  -0.000021  0.000000
  0.000000  0.000000  0.000000

  -0.000089  0.000031  0.000000
  0.000031  -0.000028  0.000000
  0.000000  0.000000  0.000000

  -0.000070  0.000022  0.000000
  0.000022  -0.000024  0.000000
  0.000000  0.000000  0.000000

  -0.000041  0.000004  0.000000
  0.000004  -0.000017  0.000000
  0.000000  0.000000  0.000000

  -0.000075  0.000023  0.000000
  0.000023  -0.000017  0.000000
  0.000000  0.000000  0.000000

  -0.000058  0.000013  0.000000
  0.000013  -0.000020  0.000000
  0.000000  0.000000  0.000000

  -0.000077  0.000023  0.000000
  0.000023  -0.000017  0.000000
  0.000000  0.000000  0.000000

  -0.000106  0.000041  0.000000
  0.000041  -0.000025  0.000000
  0.000000  0.000000  0.000000

  -0.000022  -0.000001  0.000000
  -0.000001  -0.000007  0.000000
  0.000000  0.000000  0.000000

  -0.000004  -0.000011  0.000000
  -0.000011  -0.000011  0.000000
  0.000000  0.000000  0.000000

  -0.000022  -0.000001  0.000000
  -0.000001  -0.000007  0.000000
  0.000000  0.000000  0.000000

  -0.000004  -0.000010  0.000000
  -0.000010  -0.000011  0.000000
  0.000000  0.000000  0.000000

  -0.000023  -0.000004  0.000000
  -0.000004  -0.000014  0.000000
  0.000000  0.000000  0.000000

  -0.000041  0.000007  0.000000
  0.000007  -0.000011  0.000000
  0.000000  0.000000  0.000000

  -0.000023  -0.000004  0.000000
  -0.000004  -0.000014  0.000000
  0.000000  0.000000  0.000000

  -0.000041  0.000004  0.000000
  0.000004  -0.000017  0.000000
  0.000000  0.000000  0.000000

  -0.000022  -0.000001  0.000000
  -0.000001  -0.000008  0.000000
  0.000000  0.000000  0.000000

  -0.000004  -0.000011  0.000000
  -0.000011  -0.000011  0.000000
  0.000000  0.000000  0.000000

  -0.000002  -0.000008  0.000000
  -0.000008  -0.000006  0.000000
  0.000000  0.000000  0.000000

  -0.000021  -0.000001  0.000000
  -0.000001  -0.000008  0.000000
  0.000000  0.000000  0.000000

  -0.000040  0.000006  0.000000
  0.000006  -0.000011  0.000000
  0.000000  0.000000  0.000000

  -0.000060  0.000014  0.000000
  0.000014  -0.000014  0.000000
  0.000000  0.000000  0.000000

  -0.000060  0.000012  0.000000
  0.000012  -0.000020  0.000000
  0.000000  0.000000  0.000000

  -0.000079  0.000022  0.000000
  0.000022  -0.000017  0.000000
  0.000000  0.000000  0.000000

  -0.000078  0.000022  0.000000
  0.000022  -0.000016  0.000000
  0.000000  0.000000  0.000000

  -0.000022  -0.000004  0.000000
  -0.000004  -0.000014  0.000000
  0.000000  0.000000  0.000000

  -0.000040  0.000006  0.000000
  0.000006  -0.000011  0.000000
  0.000000  0.000000  0.000000

  -0.000022  -0.000004  0.000000
  -0.000004  -0.000014  0.000000
  0.000000  0.000000  0.000000

  -0.000041  0.000003  0.000000
  0.000003  -0.000017  0.000000
  0.000000  0.000000  0.000000

  -0.000061  0.000011  0.000000
  0.000011  -0.000019  0.000000
  0.000000  0.000000  0.000000

  -0.000080  0.000020  0.000000
  0.000020  -0.000022  0.000000
  0.000000  0.000000  0.000000

  -0.000059  0.000012  0.000000
  0.000012  -0.000020  0.000000
  0.000000  0.000000  0.000000

  -0.000078  0.000023  0.000000
  0.000023  -0.000017  0.000000
  0.000000  0.000000  0.000000

  -0.000078  0.000021  0.000000
  0.000021  -0.000023  0.000000
  0.000000  0.000000  0.000000

  -0.000096  0.000032  0.000000
  0.000032  -0.000021  0.000000
  0.000000  0.000000  0.000000

  -0.000096  0.000032  0.000000
  0.000032  -0.000020  0.000000
  0.000000  0.000000  0.000000

  -0.000060  0.000014  0.000000
  0.000014  -0.000013  0.000000
  0.000000  0.000000  0.000000

  -0.000041  0.000004  0.000000
  0.000004  -0.000017  0.000000
  0.000000  0.000000  0.000000

  -0.000060  0.000013  0.000000
  0.000013  -0.000013  0.000000
  0.000000  0.000000  0.000000

  -0.000060  0.000012  0.000000
  0.000012  -0.000020  0.000000
  0.000000  0.000000  0.000000

  -0.000003  -0.000011  0.000000
  -0.000011  -0.000012  0.000000
  0.000000  0.000000  0.000000

  -0.000079  0.000020  0.000000
  0.000020  -0.000022  0.000000
  0.000000  0.000000  0.000000

  -0.000098  0.000031  0.000000
  0.000031  -0.000020  0.000000
  0.000000  0.000000  0.000000

  -0.000098  0.000029  0.000000
  0.000029  -0.000026  0.000000
  0.000000  0.000000  0.000000

  -0.000119  0.000039  0.000000
  0.000039  -0.000022  0.000000
  0.000000  0.000000  0.000000

  -0.000117  0.000038  0.000000
  0.000038  -0.000021  0.000000
  0.000000  0.000000  0.000000

  -0.000003  -0.000008  0.000000
  -0.000008  -0.000005  0.000000
  0.000000  0.000000  0.000000

  -0.000060  0.000013  0.000000
  0.000013  -0.000013  0.000000
  0.000000  0.000000  0.000000

  -0.000097  0.000029  0.000000
  0.000029  -0.000026  0.000000
  0.000000  0.000000  0.000000

  -0.000116  0.000039  0.000000
  0.000039  -0.000022  0.000000
  0.000000  0.000000  0.000000

  -0.000116  0.000038  0.000000
  0.000038  -0.000028  0.000000
  0.000000  0.000000  0.000000

  -0.000097  0.000030  0.000000
  0.000030  -0.000027  0.000000
  0.000000  0.000000  0.000000

  -0.000114  0.000040  0.000000
  0.000040  -0.000023  0.000000
  0.000000  0.000000  0.000000

  -0.000115  0.000039  0.000000
  0.000039  -0.000029  0.000000
  0.000000  0.000000  0.000000

  -0.000094  0.000031  0.000000
  0.000031  -0.000027  0.000000
  0.000000  0.000000  0.000000

  -0.000113  0.000041  0.000000
  0.000041  -0.000024  0.000000
  0.000000  0.000000  0.000000

  -0.000095  0.000032  0.000000
  0.000032  -0.000021  0.000000
  0.000000  0.000000  0.000000

  -0.000113  0.000040  0.000000
  0.000040  -0.000030  0.000000
  0.000000  0.000000  0.000000

  -0.000133  0.000051  0.000000
  0.000051  -0.000028  0.000000
  0.000000  0.000000  0.000000

  -0.000131  0.000050  0.000000
  0.000050  -0.000028  0.000000
  0.000000  0.000000  0.000000

  -0.000133  0.000049  0.000000
  0.000049  -0.000033  0.000000
  0.000000  0.000000  0.000000

  -0.000134  0.000049  0.000000
  0.000049  -0.000026  0.000000
  0.000000  0.000000  0.000000

  -0.000134  0.000050  0.000000
  0.000050  -0.000027  0.000000
  0.000000  0.000000  0.000000

  -0.000135  0.000048  0.000000
  0.000048  -0.000032  0.000000
  0.000000  0.000000  0.000000

  -0.000155  0.000059  0.000000
  0.000059  -0.000030  0.000000
  0.000000  0.000000  0.000000

  -0.000154  0.000060  0.000000
  0.000060  -0.000030  0.000000
  0.000000  0.000000  0.000000

  -0.000154  0.000059  0.000000
  0.000059  -0.000035  0.000000
  0.000000  0.000000  0.000000

  -0.000130  0.000050  0.000000
  0.000050  -0.000034  0.000000
  0.000000  0.000000  0.000000

  -0.000152  0.000061  0.000000
  0.000061  -0.000031  0.000000
  0.000000  0.000000  0.000000

  -0.000173  0.000071  0.000000
  0.000071  -0.000034  0.000000
  0.000000  0.000000  0.000000

  -0.000111  0.000040  0.000000
  0.000040  -0.000031  0.000000
  0.000000  0.000000  0.000000

  -0.000128  0.000051  0.000000
  0.000051  -0.000029  0.000000
  0.000000  0.000000  0.000000

  -0.000128  0.000050  0.000000
  0.000050  -0.000035  0.000000
  0.000000  0.000000  0.000000

  -0.000108  0.000041  0.000000
  0.000041  -0.000031  0.000000
  0.000000  0.000000  0.000000

  -0.000126  0.000051  0.000000
  0.000051  -0.000029  0.000000
  0.000000  0.000000  0.000000

  -0.000109  0.000041  0.000000
  0.000041  -0.000025  0.000000
  0.000000  0.000000  0.000000

  -0.000125  0.000051  0.000000
  0.000051  -0.000036  0.000000
  0.000000  0.000000  0.000000

  -0.000105  0.000041  0.000000
  0.000041  -0.000032  0.000000
  0.000000  0.000000  0.000000

  -0.000123  0.000051  0.000000
  0.000051  -0.000029  0.000000
  0.000000  0.000000  0.000000

  -0.000122  0.000051  0.000000
  0.000051  -0.000036  0.000000
  0.000000  0.000000  0.000000

  -0.000102  0.000041  0.000000
  0.000041  -0.000033  0.000000
  0.000000  0.000000  0.000000

  -0.000175  0.000070  0.000000
  0.000070  -0.000033  0.000000
  0.000000  0.000000  0.000000

  0.000014  -0.000018  0.000000
  -0.000018  -0.000007  0.000000
  0.000000  0.000000  0.000000

  0.000015  -0.000015  0.000000
  -0.000015  -0.000001  0.000000
  0.000000  0.000000  0.000000

  -0.000117  0.000037  0.000000
  0.000037  -0.000028  0.000000
  0.000000  0.000000  0.000000

  -0.000137  0.000048  0.000000
  0.000048  -0.000025  0.000000
  0.000000  0.000000  0.000000

  -0.000120  0.000037  0.000000
  0.000037  -0.000028  0.000000
  0.000000  0.000000  0.000000

  -0.000137  0.000047  0.000000
  0.000047  -0.000030  0.000000
  0.000000  0.000000  0.000000

  -0.000140  0.000047  0.000000
  0.000047  -0.000024  0.000000
  0.000000  0.000000  0.000000

  -0.000121  0.000036  0.000000
  0.000036  -0.000027  0.000000
  0.000000  0.000000  0.000000

  -0.000140  0.000046  0.000000
  0.000046  -0.000030  0.000000
  0.000000  0.000000  0.000000

  -0.000160  0.000056  0.000000
  0.000056  -0.000026  0.000000
  0.000000  0.000000  0.000000

  -0.000159  0.000056  0.000000
  0.000056  -0.000031  0.000000
  0.000000  0.000000  0.000000

  -0.000157  0.000057  0.000000
  0.000057  -0.000028  0.000000
  0.000000  0.000000  0.000000

  -0.000156  0.000057  0.000000
  0.000057  -0.000034  0.000000
  0.000000  0.000000  0.000000

  -0.000136  0.000046  0.000000
  0.000046  -0.000031  0.000000
  0.000000  0.000000  0.000000

  -0.000177  0.000068  0.000000
  0.000068  -0.000031  0.000000
  0.000000  0.000000  0.000000

  -0.000177  0.000067  0.000000
  0.000067  -0.000032  0.000000
  0.000000  0.000000  0.000000

  -0.000182  0.000062  0.000000
  0.000062  -0.000032  0.000000
  0.000000  0.000000  0.000000

  -0.000174  0.000070  0.000000
  0.000070  -0.000037  0.000000
  0.000000  0.000000  0.000000

  -0.000183  0.000064  0.000000
  0.000064  -0.000027  0.000000
  0.000000  0.000000  0.000000

  -0.000120  0.000039  0.000000
  0.000039  -0.000022  0.000000
  0.000000  0.000000  0.000000

  -0.000141  0.000046  0.000000
  0.000046  -0.000023  0.000000
  0.000000  0.000000  0.000000

  -0.000163  0.000055  0.000000
  0.000055  -0.000025  0.000000
  0.000000  0.000000  0.000000

  -0.000156  0.000057  0.000000
  0.000057  -0.000034  0.000000
  0.000000  0.000000  0.000000

  -0.000163  0.000054  0.000000
  0.000054  -0.000032  0.000000
  0.000000  0.000000  0.000000

  -0.000185  0.000064  0.000000
  0.000064  -0.000028  0.000000
  0.000000  0.000000  0.000000

  -0.000122  0.000035  0.000000
  0.000035  -0.000026  0.000000
  0.000000  0.000000  0.000000

  -0.000164  0.000053  0.000000
  0.000053  -0.000031  0.000000
  0.000000  0.000000  0.000000

  -0.000183  0.000066  0.000000
  0.000066  -0.000033  0.000000
  0.000000  0.000000  0.000000

  -0.000020  -0.000001  0.000000
  -0.000001  -0.000008  0.000000
  0.000000  0.000000  0.000000

  -0.000002  -0.000011  0.000000
  -0.000011  -0.000012  0.000000
  0.000000  0.000000  0.000000

  -0.000000  -0.000007  0.000000
  -0.000007  -0.000006  0.000000
  0.000000  0.000000  0.000000

  -0.000020  -0.000001  0.000000
  -0.000001  -0.000008  0.000000
  0.000000  0.000000  0.000000

  0.000017  -0.000018  0.000000
  -0.000018  -0.000009  0.000000
  0.000000  0.000000  0.000000

  0.000017  -0.000018  0.000000
  -0.000018  -0.000009  0.000000
  0.000000  0.000000  0.000000

  -0.000021  -0.000004  0.000000
  -0.000004  -0.000014  0.000000
  0.000000  0.000000  0.000000

  -0.000100  0.000028  0.000000
  0.000028  -0.000024  0.000000
  0.000000  0.000000  0.000000

  -0.000100  0.000030  0.000000
  0.000030  -0.000019  0.000000
  0.000000  0.000000  0.000000

  -0.000080  0.000019  0.000000
  0.000019  -0.000022  0.000000
  0.000000  0.000000  0.000000

  -0.000079  0.000021  0.000000
  0.000021  -0.000016  0.000000
  0.000000  0.000000  0.000000

  -0.000100  0.000029  0.000000
  0.000029  -0.000019  0.000000
  0.000000  0.000000  0.000000

  -0.000081  0.000018  0.000000
  0.000018  -0.000021  0.000000
  0.000000  0.000000  0.000000

  -0.000101  0.000027  0.000000
  0.000027  -0.000024  0.000000
  0.000000  0.000000  0.000000

  -0.000120  0.000038  0.000000
  0.000038  -0.000021  0.000000
  0.000000  0.000000  0.000000

  -0.000101  0.000025  0.000000
  0.000025  -0.000023  0.000000
  0.000000  0.000000  0.000000

  -0.000099  0.000029  0.000000
  0.000029  -0.000018  0.000000
  0.000000  0.000000  0.000000

  -0.000081  0.000017  0.000000
  0.000017  -0.000021  0.000000
  0.000000  0.000000  0.000000

  -0.000079  0.000020  0.000000
  0.000020  -0.000015  0.000000
  0.000000  0.000000  0.000000

  -0.000061  0.000011  0.000000
  0.000011  -0.000020  0.000000
  0.000000  0.000000  0.000000

  -0.000060  0.000009  0.000000
  0.000009  -0.000019  0.000000
  0.000000  0.000000  0.000000

  -0.000080  0.000021  0.000000
  0.000021  -0.000016  0.000000
  0.000000  0.000000  0.000000

  -0.000058  0.000013  0.000000
  0.000013  -0.000014  0.000000
  0.000000  0.000000  0.000000

  -0.000078  0.000019  0.000000
  0.000019  -0.000015  0.000000
  0.000000  0.000000  0.000000

  -0.000040  0.000002  0.000000
  0.000002  -0.000016  0.000000
  0.000000  0.000000  0.000000

  -0.000038  0.000005  0.000000
  0.000005  -0.000011  0.000000
  0.000000  0.000000  0.000000

  -0.000020  -0.000005  0.000000
  -0.000005  -0.000014  0.000000
  0.000000  0.000000  0.000000

  -0.000018  -0.000001  0.000000
  -0.000001  -0.000009  0.000000
  0.000000  0.000000  0.000000

  -0.000037  0.000005  0.000000
  0.000005  -0.000011  0.000000
  0.000000  0.000000  0.000000

  -0.000058  0.000012  0.000000
  0.000012  -0.000013  0.000000
  0.000000  0.000000  0.000000

  -0.000099  0.000028  0.000000
  0.000028  -0.000018  0.000000
  0.000000  0.000000  0.000000

  -0.000041  0.000003  0.000000
  0.000003  -0.000017  0.000000
  0.000000  0.000000  0.000000

  -0.000040  0.000006  0.000000
  0.000006  -0.000011  0.000000
  0.000000  0.000000  0.000000

  -0.000059  0.000009  0.000000
  0.000009  -0.000019  0.000000
  0.000000  0.000000  0.000000

  -0.000080  0.000016  0.000000
  0.000016  -0.000021  0.000000
  0.000000  0.000000  0.000000

  -0.000099  0.000026  0.000000
  0.000026  -0.000017  0.000000
  0.000000  0.000000  0.000000

  -0.000080  0.000015  0.000000
  0.000015  -0.000020  0.000000
  0.000000  0.000000  0.000000

  -0.000100  0.000024  0.000000
  0.000024  -0.000022  0.000000
  0.000000  0.000000  0.000000

  -0.000001  -0.000011  0.000000
  -0.000011  -0.000012  0.000000
  0.000000  0.000000  0.000000

  0.000001  -0.000008  0.000000
  -0.000008  -0.000006  0.000000
  0.000000  0.000000  0.000000

  0.000019  -0.000017  0.000000
  -0.000017  -0.000010  0.000000
  0.000000  0.000000  0.000000

  0.000000  -0.000012  0.000000
  -0.000012  -0.000012  0.000000
  0.000000  0.000000  0.000000

  -0.000039  0.000001  0.000000
  0.000001  -0.000016  0.000000
  0.000000  0.000000  0.000000

  -0.000057  0.000011  0.000000
  0.000011  -0.000013  0.000000
  0.000000  0.000000  0.000000

  -0.000038  0.000001  0.000000
  0.000001  -0.000016  0.000000
  0.000000  0.000000  0.000000

  -0.000058  0.000008  0.000000
  0.000008  -0.000019  0.000000
  0.000000  0.000000  0.000000

  -0.000077  0.000018  0.000000
  0.000018  -0.000015  0.000000
  0.000000  0.000000  0.000000

  -0.000078  0.000019  0.000000
  0.000019  -0.000015  0.000000
  0.000000  0.000000  0.000000

  -0.000058  0.000007  0.000000
  0.000007  -0.000018  0.000000
  0.000000  0.000000  0.000000

  -0.000078  0.000015  0.000000
  0.000015  -0.000020  0.000000
  0.000000  0.000000  0.000000

  0.000003  -0.000008  0.000000
  -0.000008  -0.000006  0.000000
  0.000000  0.000000  0.000000

  0.000021  -0.000018  0.000000
  -0.000018  -0.000010  0.000000
  0.000000  0.000000  0.000000

  0.000023  -0.000014  0.000000
  -0.000014  -0.000004  0.000000
  0.000000  0.000000  0.000000

  0.000004  -0.000008  0.000000
  -0.000008  -0.000006  0.000000
  0.000000  0.000000  0.000000

  0.000038  -0.000024  0.000000
  -0.000024  -0.000007  0.000000
  0.000000  0.000000  0.000000

  0.000041  -0.000024  0.000000
  -0.000024  -0.000007  0.000000
  0.000000  0.000000  0.000000

  0.000023  -0.000018  0.000000
  -0.000018  -0.000010  0.000000
  0.000000  0.000000  0.000000

  -0.000018  -0.000005  0.000000
  -0.000005  -0.000015  0.000000
  0.000000  0.000000  0.000000

  0.000021  -0.000014  0.000000
  -0.000014  -0.000004  0.000000
  0.000000  0.000000  0.000000

  0.000037  -0.000024  0.000000
  -0.000024  -0.000007  0.000000
  0.000000  0.000000  0.000000

  0.000020  -0.000014  0.000000
  -0.000014  -0.000003  0.000000
  0.000000  0.000000  0.000000

  0.000036  -0.000024  0.000000
  -0.000024  -0.000006  0.000000
  0.000000  0.000000  0.000000

  0.000039  -0.000020  0.000000
  -0.000020  -0.000001  0.000000
  0.000000  0.000000  0.000000

  0.000002  -0.000012  0.000000
  -0.000012  -0.000012  0.000000
  0.000000  0.000000  0.000000

  -0.000014  -0.000002  0.000000
  -0.000002  -0.000009  0.000000
  0.000000  0.000000  0.000000

  0.000004  -0.000013  0.000000
  -0.000013  -0.000012  0.000000
  0.000000  0.000000  0.000000

  -0.000017  -0.000006  0.000000
  -0.000006  -0.000014  0.000000
  0.000000  0.000000  0.000000

  -0.000036  0.000004  0.000000
  0.000004  -0.000011  0.000000
  0.000000  0.000000  0.000000

  -0.000120  0.000036  0.000000
  0.000036  -0.000020  0.000000
  0.000000  0.000000  0.000000

  -0.000120  0.000035  0.000000
  0.000035  -0.000020  0.000000
  0.000000  0.000000  0.000000

  -0.000122  0.000032  0.000000
  0.000032  -0.000024  0.000000
  0.000000  0.000000  0.000000

  -0.000101  0.000024  0.000000
  0.000024  -0.000022  0.000000
  0.000000  0.000000  0.000000

  -0.000142  0.000042  0.000000
  0.000042  -0.000021  0.000000
  0.000000  0.000000  0.000000

  -0.000142  0.000043  0.000000
  0.000043  -0.000021  0.000000
  0.000000  0.000000  0.000000

  -0.000122  0.000030  0.000000
  0.000030  -0.000023  0.000000
  0.000000  0.000000  0.000000

  -0.000144  0.000040  0.000000
  0.000040  -0.000026  0.000000
  0.000000  0.000000  0.000000

  -0.000142  0.000042  0.000000
  0.000042  -0.000027  0.000000
  0.000000  0.000000  0.000000

  -0.000121  0.000033  0.000000
  0.000033  -0.000025  0.000000
  0.000000  0.000000  0.000000

  -0.000142  0.000045  0.000000
  0.000045  -0.000023  0.000000
  0.000000  0.000000  0.000000

  -0.000143  0.000043  0.000000
  0.000043  -0.000027  0.000000
  0.000000  0.000000  0.000000

  -0.000056  0.000011  0.000000
  0.000011  -0.000013  0.000000
  0.000000  0.000000  0.000000

  -0.000098  0.000025  0.000000
  0.000025  -0.000017  0.000000
  0.000000  0.000000  0.000000

  -0.000100  0.000022  0.000000
  0.000022  -0.000021  0.000000
  0.000000  0.000000  0.000000

  -0.000119  0.000032  0.000000
  0.000032  -0.000018  0.000000
  0.000000  0.000000  0.000000

  -0.000120  0.000033  0.000000
  0.000033  -0.000019  0.000000
  0.000000  0.000000  0.000000

  -0.000100  0.000020  0.000000
  0.000020  -0.000021  0.000000
  0.000000  0.000000  0.000000

  -0.000121  0.000029  0.000000
  0.000029  -0.000023  0.000000
  0.000000  0.000000  0.000000

  -0.000097  0.000024  0.000000
  0.000024  -0.000016  0.000000
  0.000000  0.000000  0.000000

  -0.000078  0.000013  0.000000
  0.000013  -0.000020  0.000000
  0.000000  0.000000  0.000000

  -0.000075  0.000017  0.000000
  0.000017  -0.000015  0.000000
  0.000000  0.000000  0.000000

  -0.000096  0.000022  0.000000
  0.000022  -0.000016  0.000000
  0.000000  0.000000  0.000000

  -0.000056  0.000006  0.000000
  0.000006  -0.000018  0.000000
  0.000000  0.000000  0.000000

  -0.000053  0.000010  0.000000
  0.000010  -0.000013  0.000000
  0.000000  0.000000  0.000000

  -0.000074  0.000015  0.000000
  0.000015  -0.000014  0.000000
  0.000000  0.000000  0.000000

  -0.000117  0.000031  0.000000
  0.000031  -0.000018  0.000000
  0.000000  0.000000  0.000000

  -0.000098  0.000019  0.000000
  0.000019  -0.000021  0.000000
  0.000000  0.000000  0.000000

  -0.000117  0.000029  0.000000
  0.000029  -0.000017  0.000000
  0.000000  0.000000  0.000000

  -0.000097  0.000017  0.000000
  0.000017  -0.000020  0.000000
  0.000000  0.000000  0.000000

  -0.000119  0.000025  0.000000
  0.000025  -0.000021  0.000000
  0.000000  0.000000  0.000000

  -0.000076  0.000012  0.000000
  0.000012  -0.000020  0.000000
  0.000000  0.000000  0.000000

  -0.000094  0.000022  0.000000
  0.000022  -0.000016  0.000000
  0.000000  0.000000  0.000000

  -0.000074  0.000010  0.000000
  0.000010  -0.000019  0.000000
  0.000000  0.000000  0.000000

  -0.000071  0.000015  0.000000
  0.000015  -0.000015  0.000000
  0.000000  0.000000  0.000000

  -0.000092  0.000020  0.000000
  0.000020  -0.000015  0.000000
  0.000000  0.000000  0.000000

  -0.000114  0.000028  0.000000
  0.000028  -0.000017  0.000000
  0.000000  0.000000  0.000000

  -0.000054  0.000005  0.000000
  0.000005  -0.000017  0.000000
  0.000000  0.000000  0.000000

  -0.000051  0.000009  0.000000
  0.000009  -0.000013  0.000000
  0.000000  0.000000  0.000000

  -0.000034  -0.000001  0.000000
  -0.000001  -0.000016  0.000000
  0.000000  0.000000  0.000000

  -0.000032  -0.000002  0.000000
  -0.000002  -0.000016  0.000000
  0.000000  0.000000  0.000000

  -0.000031  0.000003  0.000000
  0.000003  -0.000011  0.000000
  0.000000  0.000000  0.000000

  -0.000015  -0.000007  0.000000
  -0.000007  -0.000014  0.000000
  0.000000  0.000000  0.000000

  -0.000034  0.000004  0.000000
  0.000004  -0.000011  0.000000
  0.000000  0.000000  0.000000

  -0.000012  -0.000003  0.000000
  -0.000003  -0.000009  0.000000
  0.000000  0.000000  0.000000

  -0.000036  -0.000000  0.000000
  -0.000000  -0.000016  0.000000
  0.000000  0.000000  0.000000

  0.000007  -0.000012  0.000000
  -0.000012  -0.000013  0.000000
  0.000000  0.000000  0.000000

  -0.000012  -0.000007  0.000000
  -0.000007  -0.000014  0.000000
  0.000000  0.000000  0.000000

  0.000009  -0.000009  0.000000
  -0.000009  -0.000007  0.000000
  0.000000  0.000000  0.000000

  -0.000010  -0.000003  0.000000
  -0.000003  -0.000009  0.000000
  0.000000  0.000000  0.000000

  0.000009  -0.000013  0.000000
  -0.000013  -0.000013  0.000000
  0.000000  0.000000  0.000000

  0.000012  -0.000009  0.000000
  -0.000009  -0.000007  0.000000
  0.000000  0.000000  0.000000

  -0.000008  -0.000004  0.000000
  -0.000004  -0.000009  0.000000
  0.000000  0.000000  0.000000

  -0.000072  0.000009  0.000000
  0.000009  -0.000018  0.000000
  0.000000  0.000000  0.000000

  -0.000029  0.000003  0.000000
  0.000003  -0.000011  0.000000
  0.000000  0.000000  0.000000

  -0.000049  0.000008  0.000000
  0.000008  -0.000012  0.000000
  0.000000  0.000000  0.000000

  -0.000010  -0.000008  0.000000
  -0.000008  -0.000015  0.000000
  0.000000  0.000000  0.000000

  -0.000027  0.000002  0.000000
  0.000002  -0.000011  0.000000
  0.000000  0.000000  0.000000

  -0.000008  -0.000008  0.000000
  -0.000008  -0.000014  0.000000
  0.000000  0.000000  0.000000

  -0.000030  -0.000002  0.000000
  -0.000002  -0.000016  0.000000
  0.000000  0.000000  0.000000

  -0.000047  0.000007  0.000000
  0.000007  -0.000012  0.000000
  0.000000  0.000000  0.000000

  -0.000028  -0.000003  0.000000
  -0.000003  -0.000016  0.000000
  0.000000  0.000000  0.000000

  -0.000050  0.000002  0.000000
  0.000002  -0.000017  0.000000
  0.000000  0.000000  0.000000

  -0.000067  0.000013  0.000000
  0.000013  -0.000014  0.000000
  0.000000  0.000000  0.000000

  -0.000069  0.000014  0.000000
  0.000014  -0.000014  0.000000
  0.000000  0.000000  0.000000

  -0.000048  0.000001  0.000000
  0.000001  -0.000017  0.000000
  0.000000  0.000000  0.000000

  -0.000069  0.000008  0.000000
  0.000008  -0.000018  0.000000
  0.000000  0.000000  0.000000

  -0.000052  0.000003  0.000000
  0.000003  -0.000017  0.000000
  0.000000  0.000000  0.000000

  -0.000044  0.000007  0.000000
  0.000007  -0.000012  0.000000
  0.000000  0.000000  0.000000

  -0.000024  -0.000004  0.000000
  -0.000004  -0.000016  0.000000
  0.000000  0.000000  0.000000

  -0.000021  0.000001  0.000000
  0.000001  -0.000011  0.000000
  0.000000  0.000000  0.000000

  -0.000040  0.000006  0.000000
  0.000006  -0.000012  0.000000
  0.000000  0.000000  0.000000

  -0.000063  0.000012  0.000000
  0.000012  -0.000014  0.000000
  0.000000  0.000000  0.000000

  -0.000088  0.000018  0.000000
  0.000018  -0.000014  0.000000
  0.000000  0.000000  0.000000

  -0.000090  0.000019  0.000000
  0.000019  -0.000015  0.000000
  0.000000  0.000000  0.000000

  -0.000093  0.000015  0.000000
  0.000015  -0.000019  0.000000
  0.000000  0.000000  0.000000

  -0.000112  0.000024  0.000000
  0.000024  -0.000016  0.000000
  0.000000  0.000000  0.000000

  -0.000113  0.000026  0.000000
  0.000026  -0.000016  0.000000
  0.000000  0.000000  0.000000

  -0.000115  0.000022  0.000000
  0.000022  -0.000021  0.000000
  0.000000  0.000000  0.000000

  -0.000094  0.000016  0.000000
  0.000016  -0.000020  0.000000
  0.000000  0.000000  0.000000

  -0.000136  0.000032  0.000000
  0.000032  -0.000017  0.000000
  0.000000  0.000000  0.000000

  -0.000137  0.000032  0.000000
  0.000032  -0.000016  0.000000
  0.000000  0.000000  0.000000

  -0.000002  -0.000010  0.000000
  -0.000010  -0.000014  0.000000
  0.000000  0.000000  0.000000

  -0.000114  0.000020  0.000000
  0.000020  -0.000020  0.000000
  0.000000  0.000000  0.000000

  -0.000138  0.000027  0.000000
  0.000027  -0.000021  0.000000
  0.000000  0.000000  0.000000

  -0.000117  0.000023  0.000000
  0.000023  -0.000021  0.000000
  0.000000  0.000000  0.000000

  -0.000138  0.000035  0.000000
  0.000035  -0.000018  0.000000
  0.000000  0.000000  0.000000

  -0.000141  0.000030  0.000000
  0.000030  -0.000021  0.000000
  0.000000  0.000000  0.000000

  -0.000157  0.000041  0.000000
  0.000041  -0.000020  0.000000
  0.000000  0.000000  0.000000

  -0.000161  0.000043  0.000000
  0.000043  -0.000019  0.000000
  0.000000  0.000000  0.000000

  -0.000138  0.000028  0.000000
  0.000028  -0.000021  0.000000
  0.000000  0.000000  0.000000

  -0.000159  0.000038  0.000000
  0.000038  -0.000018  0.000000
  0.000000  0.000000  0.000000

  -0.000160  0.000037  0.000000
  0.000037  -0.000022  0.000000
  0.000000  0.000000  0.000000

  -0.000184  0.000044  0.000000
  0.000044  -0.000017  0.000000
  0.000000  0.000000  0.000000

  -0.000181  0.000043  0.000000
  0.000043  -0.000017  0.000000
  0.000000  0.000000  0.000000

  -0.000161  0.000034  0.000000
  0.000034  -0.000022  0.000000
  0.000000  0.000000  0.000000

  -0.000185  0.000042  0.000000
  0.000042  -0.000022  0.000000
  0.000000  0.000000  0.000000

  -0.000181  0.000044  0.000000
  0.000044  -0.000023  0.000000
  0.000000  0.000000  0.000000

  -0.000160  0.000037  0.000000
  0.000037  -0.000024  0.000000
  0.000000  0.000000  0.000000

  -0.000182  0.000047  0.000000
  0.000047  -0.000018  0.000000
  0.000000  0.000000  0.000000

  -0.000183  0.000044  0.000000
  0.000044  -0.000023  0.000000
  0.000000  0.000000  0.000000

  -0.000163  0.000040  0.000000
  0.000040  -0.000025  0.000000
  0.000000  0.000000  0.000000

  -0.000183  0.000050  0.000000
  0.000050  -0.000019  0.000000
  0.000000  0.000000  0.000000

  -0.000201  0.000056  0.000000
  0.000056  -0.000021  0.000000
  0.000000  0.000000  0.000000

  -0.000210  0.000048  0.000000
  0.000048  -0.000020  0.000000
  0.000000  0.000000  0.000000

  -0.000204  0.000058  0.000000
  0.000058  -0.000024  0.000000
  0.000000  0.000000  0.000000

  -0.000186  0.000046  0.000000
  0.000046  -0.000022  0.000000
  0.000000  0.000000  0.000000

  -0.000163  0.000043  0.000000
  0.000043  -0.000024  0.000000
  0.000000  0.000000  0.000000

  -0.000205  0.000057  0.000000
  0.000057  -0.000026  0.000000
  0.000000  0.000000  0.000000

  -0.000203  0.000064  0.000000
  0.000064  -0.000028  0.000000
  0.000000  0.000000  0.000000

  -0.000187  0.000055  0.000000
  0.000055  -0.000023  0.000000
  0.000000  0.000000  0.000000

  -0.000163  0.000042  0.000000
  0.000042  -0.000018  0.000000
  0.000000  0.000000  0.000000

  -0.000208  0.000054  0.000000
  0.000054  -0.000022  0.000000
  0.000000  0.000000  0.000000

  -0.000231  0.000067  0.000000
  0.000067  -0.000023  0.000000
  0.000000  0.000000  0.000000

  -0.000192  0.000051  0.000000
  0.000051  -0.000024  0.000000
  0.000000  0.000000  0.000000

  -0.000163  0.000045  0.000000
  0.000045  -0.000026  0.000000
  0.000000  0.000000  0.000000

  -0.000141  0.000034  0.000000
  0.000034  -0.000022  0.000000
  0.000000  0.000000  0.000000

  -0.000139  0.000037  0.000000
  0.000037  -0.000019  0.000000
  0.000000  0.000000  0.000000

  -0.000121  0.000025  0.000000
  0.000025  -0.000021  0.000000
  0.000000  0.000000  0.000000

  -0.000141  0.000040  0.000000
  0.000040  -0.000020  0.000000
  0.000000  0.000000  0.000000

  -0.000143  0.000037  0.000000
  0.000037  -0.000026  0.000000
  0.000000  0.000000  0.000000

  -0.000163  0.000047  0.000000
  0.000047  -0.000019  0.000000
  0.000000  0.000000  0.000000

  -0.000159  0.000049  0.000000
  0.000049  -0.000022  0.000000
  0.000000  0.000000  0.000000

  -0.000143  0.000034  0.000000
  0.000034  -0.000024  0.000000
  0.000000  0.000000  0.000000

  0.000030  -0.000019  0.000000
  -0.000019  -0.000011  0.000000
  0.000000  0.000000  0.000000

  -0.000044  0.000000  0.000000
  0.000000  -0.000017  0.000000
  0.000000  0.000000  0.000000

  -0.000060  0.000010  0.000000
  0.000010  -0.000013  0.000000
  0.000000  0.000000  0.000000

  -0.000041  -0.000001  0.000000
  -0.000001  -0.000016  0.000000
  0.000000  0.000000  0.000000

  -0.000064  0.000005  0.000000
  0.000005  -0.000018  0.000000
  0.000000  0.000000  0.000000

  -0.000139  0.000040  0.000000
  0.000040  -0.000020  0.000000
  0.000000  0.000000  0.000000

  0.000027  -0.000018  0.000000
  -0.000018  -0.000010  0.000000
  0.000000  0.000000  0.000000

  0.000030  -0.000014  0.000000
  -0.000014  -0.000005  0.000000
  0.000000  0.000000  0.000000

  0.000046  -0.000024  0.000000
  -0.000024  -0.000008  0.000000
  0.000000  0.000000  0.000000

  0.000048  -0.000024  0.000000
  -0.000024  -0.000009  0.000000
  0.000000  0.000000  0.000000

  -0.000021  -0.000005  0.000000
  -0.000005  -0.000016  0.000000
  0.000000  0.000000  0.000000

  0.000011  -0.000013  0.000000
  -0.000013  -0.000013  0.000000
  0.000000  0.000000  0.000000

  -0.000005  -0.000009  0.000000
  -0.000009  -0.000014  0.000000
  0.000000  0.000000  0.000000

  -0.000002  -0.000004  0.000000
  -0.000004  -0.000010  0.000000
  0.000000  0.000000  0.000000

  0.000014  -0.000014  0.000000
  -0.000014  -0.000012  0.000000
  0.000000  0.000000  0.000000

  -0.000005  -0.000004  0.000000
  -0.000004  -0.000009  0.000000
  0.000000  0.000000  0.000000

  0.000017  -0.000009  0.000000
  -0.000009  -0.000008  0.000000
  0.000000  0.000000  0.000000

  0.000033  -0.000019  0.000000
  -0.000019  -0.000010  0.000000
  0.000000  0.000000  0.000000

  0.000036  -0.000019  0.000000
  -0.000019  -0.000011  0.000000
  0.000000  0.000000  0.000000

  0.000035  -0.000014  0.000000
  -0.000014  -0.000006  0.000000
  0.000000  0.000000  0.000000

  0.000017  -0.000014  0.000000
  -0.000014  -0.000013  0.000000
  0.000000  0.000000  0.000000

  0.000051  -0.000024  0.000000
  -0.000024  -0.000009  0.000000
  0.000000  0.000000  0.000000

  0.000033  -0.000014  0.000000
  -0.000014  -0.000005  0.000000
  0.000000  0.000000  0.000000

  0.000054  -0.000019  0.000000
  -0.000019  -0.000003  0.000000
  0.000000  0.000000  0.000000

  0.000054  -0.000023  0.000000
  -0.000023  -0.000010  0.000000
  0.000000  0.000000  0.000000

  0.000068  -0.000029  0.000000
  -0.000029  -0.000006  0.000000
  0.000000  0.000000  0.000000

  0.000072  -0.000029  0.000000
  -0.000029  -0.000007  0.000000
  0.000000  0.000000  0.000000

  0.000038  -0.000014  0.000000
  -0.000014  -0.000005  0.000000
  0.000000  0.000000  0.000000

  0.000057  -0.000024  0.000000
  -0.000024  -0.000010  0.000000
  0.000000  0.000000  0.000000

  0.000060  -0.000019  0.000000
  -0.000019  -0.000004  0.000000
  0.000000  0.000000  0.000000

  0.000042  -0.000014  0.000000
  -0.000014  -0.000006  0.000000
  0.000000  0.000000  0.000000

  0.000020  -0.000009  0.000000
  -0.000009  -0.000008  0.000000
  0.000000  0.000000  0.000000

  0.000039  -0.000019  0.000000
  -0.000019  -0.000012  0.000000
  0.000000  0.000000  0.000000

  0.000023  -0.000009  0.000000
  -0.000009  -0.000008  0.000000
  0.000000  0.000000  0.000000

  0.000042  -0.000019  0.000000
  -0.000019  -0.000012  0.000000
  0.000000  0.000000  0.000000

  0.000020  -0.000014  0.000000
  -0.000014  -0.000013  0.000000
  0.000000  0.000000  0.000000

  0.000005  -0.000005  0.000000
  -0.000005  -0.000009  0.000000
  0.000000  0.000000  0.000000

  0.000002  -0.000004  0.000000
  -0.000004  -0.000009  0.000000
  0.000000  0.000000  0.000000

  0.000023  -0.000015  0.000000
  -0.000015  -0.000013  0.000000
  0.000000  0.000000  0.000000

  0.000002  -0.000010  0.000000
  -0.000010  -0.000014  0.000000
  0.000000  0.000000  0.000000

  -0.000014  0.000000  0.000000
  0.000000  -0.000011  0.000000
  0.000000  0.000000  0.000000

  0.000004  -0.000011  0.000000
  -0.000011  -0.000014  0.000000
  0.000000  0.000000  0.000000

  -0.000017  -0.000006  0.000000
  -0.000006  -0.000016  0.000000
  0.000000  0.000000  0.000000

  -0.000033  0.000004  0.000000
  0.000004  -0.000012  0.000000
  0.000000  0.000000  0.000000

  -0.000037  0.000005  0.000000
  0.000005  -0.000012  0.000000
  0.000000  0.000000  0.000000

  -0.000014  -0.000007  0.000000
  -0.000007  -0.000015  0.000000
  0.000000  0.000000  0.000000

  -0.000036  -0.000001  0.000000
  -0.000001  -0.000017  0.000000
  0.000000  0.000000  0.000000

  0.000027  -0.000009  0.000000
  -0.000009  -0.000008  0.000000
  0.000000  0.000000  0.000000

  0.000046  -0.000019  0.000000
  -0.000019  -0.000012  0.000000
  0.000000  0.000000  0.000000

  0.000009  -0.000005  0.000000
  -0.000005  -0.000010  0.000000
  0.000000  0.000000  0.000000

  0.000027  -0.000015  0.000000
  -0.000015  -0.000014  0.000000
  0.000000  0.000000  0.000000

  0.000031  -0.000010  0.000000
  -0.000010  -0.000008  0.000000
  0.000000  0.000000  0.000000

  0.000013  -0.000006  0.000000
  -0.000006  -0.000010  0.000000
  0.000000  0.000000  0.000000

  0.000049  -0.000021  0.000000
  -0.000021  -0.000008  0.000000
  0.000000  0.000000  0.000000

  -0.000054  0.000008  0.000000
  0.000008  -0.000013  0.000000
  0.000000  0.000000  0.000000

  0.000034  -0.000017  0.000000
  -0.000017  -0.000015  0.000000
  0.000000  0.000000  0.000000

  -0.000010  -0.000001  0.000000
  -0.000001  -0.000011  0.000000
  0.000000  0.000000  0.000000

  0.000048  -0.000015  0.000000
  -0.000015  -0.000004  0.000000
  0.000000  0.000000  0.000000

  -0.000029  0.000003  0.000000
  0.000003  -0.000012  0.000000
  0.000000  0.000000  0.000000

  -0.000057  0.000009  0.000000
  0.000009  -0.000013  0.000000
  0.000000  0.000000  0.000000

  -0.000060  0.000004  0.000000
  0.000004  -0.000017  0.000000
  0.000000  0.000000  0.000000

  -0.000077  0.000014  0.000000
  0.000014  -0.000014  0.000000
  0.000000  0.000000  0.000000

  -0.000081  0.000015  0.000000
  0.000015  -0.000014  0.000000
  0.000000  0.000000  0.000000

  -0.000085  0.000010  0.000000
  0.000010  -0.000018  0.000000
  0.000000  0.000000  0.000000

  -0.000102  0.000020  0.000000
  0.000020  -0.000015  0.000000
  0.000000  0.000000  0.000000

  -0.000106  0.000021  0.000000
  0.000021  -0.000015  0.000000
  0.000000  0.000000  0.000000

  -0.000057  0.000002  0.000000
  0.000002  -0.000017  0.000000
  0.000000  0.000000  0.000000

  -0.000074  0.000012  0.000000
  0.000012  -0.000014  0.000000
  0.000000  0.000000  0.000000

  -0.000054  0.000001  0.000000
  0.000001  -0.000017  0.000000
  0.000000  0.000000  0.000000

  -0.000077  0.000007  0.000000
  0.000007  -0.000018  0.000000
  0.000000  0.000000  0.000000

  -0.000081  0.000008  0.000000
  0.000008  -0.000018  0.000000
  0.000000  0.000000  0.000000

  -0.000049  0.000007  0.000000
  0.000007  -0.000013  0.000000
  0.000000  0.000000  0.000000

  -0.000028  -0.000003  0.000000
  -0.000003  -0.000017  0.000000
  0.000000  0.000000  0.000000

  -0.000025  0.000003  0.000000
  0.000003  -0.000012  0.000000
  0.000000  0.000000  0.000000

  -0.000045  0.000006  0.000000
  0.000006  -0.000013  0.000000
  0.000000  0.000000  0.000000

  -0.000095  0.000016  0.000000
  0.000016  -0.000014  0.000000
  0.000000  0.000000  0.000000

  -0.000099  0.000018  0.000000
  0.000018  -0.000014  0.000000
  0.000000  0.000000  0.000000

  -0.000102  0.000012  0.000000
  0.000012  -0.000018  0.000000
  0.000000  0.000000  0.000000

  -0.000120  0.000022  0.000000
  0.000022  -0.000015  0.000000
  0.000000  0.000000  0.000000

  -0.000124  0.000023  0.000000
  0.000023  -0.000014  0.000000
  0.000000  0.000000  0.000000

  0.000009  -0.000012  0.000000
  -0.000012  -0.000014  0.000000
  0.000000  0.000000  0.000000

  -0.000005  -0.000000  0.000000
  -0.000000  -0.000010  0.000000
  0.000000  0.000000  0.000000

  -0.000069  0.000011  0.000000
  0.000011  -0.000014  0.000000
  0.000000  0.000000  0.000000

  0.000025  -0.000018  0.000000
  -0.000018  -0.000010  0.000000
  0.000000  0.000000  0.000000

  0.000007  -0.000008  0.000000
  -0.000008  -0.000007  0.000000
  0.000000  0.000000  0.000000

  -0.000067  0.000006  0.000000
  0.000006  -0.000018  0.000000
  0.000000  0.000000  0.000000

  0.000048  -0.000019  0.000000
  -0.000019  -0.000002  0.000000
  0.000000  0.000000  0.000000

  0.000045  -0.000014  0.000000
  -0.000014  -0.000006  0.000000
  0.000000  0.000000  0.000000

  0.000055  -0.000030  0.000000
  -0.000030  -0.000004  0.000000
  0.000000  0.000000  0.000000

  -0.000160  0.000037  0.000000
  0.000037  -0.000017  0.000000
  0.000000  0.000000  0.000000

  0.000060  -0.000024  0.000000
  -0.000024  -0.000010  0.000000
  0.000000  0.000000  0.000000

  0.000063  -0.000019  0.000000
  -0.000019  -0.000004  0.000000
  0.000000  0.000000  0.000000

  0.000078  -0.000028  0.000000
  -0.000028  -0.000008  0.000000
  0.000000  0.000000  0.000000

  0.000082  -0.000028  0.000000
  -0.000028  -0.000009  0.000000
  0.000000  0.000000  0.000000

  0.000081  -0.000023  0.000000
  -0.000023  -0.000002  0.000000
  0.000000  0.000000  0.000000

  0.000085  -0.000022  0.000000
  -0.000022  -0.000002  0.000000
  0.000000  0.000000  0.000000

  0.000069  -0.000017  0.000000
  -0.000017  -0.000005  0.000000
  0.000000  0.000000  0.000000

  0.000090  -0.000020  0.000000
  -0.000020  -0.000011  0.000000
  0.000000  0.000000  0.000000

  0.000065  -0.000024  0.000000
  -0.000024  -0.000011  0.000000
  0.000000  0.000000  0.000000

  -0.000088  0.000011  0.000000
  0.000011  -0.000019  0.000000
  0.000000  0.000000  0.000000

  -0.000109  0.000023  0.000000
  0.000023  -0.000015  0.000000
  0.000000  0.000000  0.000000

  -0.000113  0.000018  0.000000
  0.000018  -0.000019  0.000000
  0.000000  0.000000  0.000000

  -0.000091  0.000013  0.000000
  0.000013  -0.000019  0.000000
  0.000000  0.000000  0.000000

  -0.000129  0.000028  0.000000
  0.000028  -0.000016  0.000000
  0.000000  0.000000  0.000000

  -0.000134  0.000030  0.000000
  0.000030  -0.000016  0.000000
  0.000000  0.000000  0.000000

  -0.000109  0.000016  0.000000
  0.000016  -0.000019  0.000000
  0.000000  0.000000  0.000000

  -0.000127  0.000026  0.000000
  0.000026  -0.000015  0.000000
  0.000000  0.000000  0.000000

  -0.000106  0.000014  0.000000
  0.000014  -0.000019  0.000000
  0.000000  0.000000  0.000000

  -0.000131  0.000021  0.000000
  0.000021  -0.000018  0.000000
  0.000000  0.000000  0.000000

  -0.000149  0.000030  0.000000
  0.000030  -0.000015  0.000000
  0.000000  0.000000  0.000000

  -0.000153  0.000032  0.000000
  0.000032  -0.000015  0.000000
  0.000000  0.000000  0.000000

  -0.000128  0.000018  0.000000
  0.000018  -0.000018  0.000000
  0.000000  0.000000  0.000000

  -0.000146  0.000028  0.000000
  0.000028  -0.000015  0.000000
  0.000000  0.000000  0.000000

  -0.000124  0.000016  0.000000
  0.000016  -0.000018  0.000000
  0.000000  0.000000  0.000000

  -0.000142  0.000026  0.000000
  0.000026  -0.000014  0.000000
  0.000000  0.000000  0.000000

  -0.000149  0.000022  0.000000
  0.000022  -0.000018  0.000000
  0.000000  0.000000  0.000000

  -0.000120  0.000014  0.000000
  0.000014  -0.000017  0.000000
  0.000000  0.000000  0.000000

  -0.000146  0.000020  0.000000
  0.000020  -0.000017  0.000000
  0.000000  0.000000  0.000000

  -0.000153  0.000024  0.000000
  0.000024  -0.000018  0.000000
  0.000000  0.000000  0.000000

  -0.000133  0.000023  0.000000
  0.000023  -0.000019  0.000000
  0.000000  0.000000  0.000000

  -0.000156  0.000036  0.000000
  0.000036  -0.000017  0.000000
  0.000000  0.000000  0.000000

  -0.000172  0.000034  0.000000
  0.000034  -0.000015  0.000000
  0.000000  0.000000  0.000000

  -0.000177  0.000028  0.000000
  0.000028  -0.000018  0.000000
  0.000000  0.000000  0.000000

  -0.000194  0.000038  0.000000
  0.000038  -0.000014  0.000000
  0.000000  0.000000  0.000000

  -0.000203  0.000041  0.000000
  0.000041  -0.000012  0.000000
  0.000000  0.000000  0.000000

  -0.000155  0.000028  0.000000
  0.000028  -0.000019  0.000000
  0.000000  0.000000  0.000000

  -0.000168  0.000032  0.000000
  0.000032  -0.000014  0.000000
  0.000000  0.000000  0.000000

  -0.000137  0.000024  0.000000
  0.000024  -0.000014  0.000000
  0.000000  0.000000  0.000000

  -0.000172  0.000026  0.000000
  0.000026  -0.000017  0.000000
  0.000000  0.000000  0.000000

  -0.000191  0.000036  0.000000
  0.000036  -0.000013  0.000000
  0.000000  0.000000  0.000000

  -0.000168  0.000023  0.000000
  0.000023  -0.000017  0.000000
  0.000000  0.000000  0.000000

  -0.000195  0.000030  0.000000
  0.000030  -0.000016  0.000000
  0.000000  0.000000  0.000000

  -0.000180  0.000033  0.000000
  0.000033  -0.000016  0.000000
  0.000000  0.000000  0.000000

  -0.000164  0.000029  0.000000
  0.000029  -0.000014  0.000000
  0.000000  0.000000  0.000000

  -0.000142  0.000017  0.000000
  0.000017  -0.000017  0.000000
  0.000000  0.000000  0.000000

  -0.000186  0.000033  0.000000
  0.000033  -0.000013  0.000000
  0.000000  0.000000  0.000000

  -0.000215  0.000039  0.000000
  0.000039  -0.000012  0.000000
  0.000000  0.000000  0.000000

  -0.000115  0.000020  0.000000
  0.000020  -0.000014  0.000000
  0.000000  0.000000  0.000000

  -0.000099  0.000010  0.000000
  0.000010  -0.000018  0.000000
  0.000000  0.000000  0.000000

  -0.000095  0.000008  0.000000
  0.000008  -0.000017  0.000000
  0.000000  0.000000  0.000000

  -0.000090  0.000015  0.000000
  0.000015  -0.000014  0.000000
  0.000000  0.000000  0.000000

  -0.000069  0.000004  0.000000
  0.000004  -0.000018  0.000000
  0.000000  0.000000  0.000000

  -0.000110  0.000018  0.000000
  0.000018  -0.000014  0.000000
  0.000000  0.000000  0.000000

  -0.000064  0.000010  0.000000
  0.000010  -0.000013  0.000000
  0.000000  0.000000  0.000000

  -0.000049  -0.000000  0.000000
  -0.000000  -0.000017  0.000000
  0.000000  0.000000  0.000000

  -0.000045  -0.000002  0.000000
  -0.000002  -0.000016  0.000000
  0.000000  0.000000  0.000000

  -0.000085  0.000013  0.000000
  0.000013  -0.000013  0.000000
  0.000000  0.000000  0.000000

  -0.000039  0.000005  0.000000
  0.000005  -0.000013  0.000000
  0.000000  0.000000  0.000000

  -0.000060  0.000009  0.000000
  0.000009  -0.000013  0.000000
  0.000000  0.000000  0.000000

  -0.000089  0.000006  0.000000
  0.000006  -0.000018  0.000000
  0.000000  0.000000  0.000000

  -0.000105  0.000017  0.000000
  0.000017  -0.000014  0.000000
  0.000000  0.000000  0.000000

  -0.000084  0.000005  0.000000
  0.000005  -0.000017  0.000000
  0.000000  0.000000  0.000000

  -0.000110  0.000010  0.000000
  0.000010  -0.000017  0.000000
  0.000000  0.000000  0.000000

  -0.000079  0.000012  0.000000
  0.000012  -0.000014  0.000000
  0.000000  0.000000  0.000000

  -0.000057  0.000000  0.000000
  0.000000  -0.000017  0.000000
  0.000000  0.000000  0.000000

  -0.000099  0.000015  0.000000
  0.000015  -0.000013  0.000000
  0.000000  0.000000  0.000000

  -0.000132  0.000021  0.000000
  0.000021  -0.000014  0.000000
  0.000000  0.000000  0.000000

  -0.000137  0.000015  0.000000
  0.000015  -0.000017  0.000000
  0.000000  0.000000  0.000000

  -0.000154  0.000025  0.000000
  0.000025  -0.000013  0.000000
  0.000000  0.000000  0.000000

  -0.000159  0.000027  0.000000
  0.000027  -0.000013  0.000000
  0.000000  0.000000  0.000000

  -0.000164  0.000020  0.000000
  0.000020  -0.000016  0.000000
  0.000000  0.000000  0.000000

  -0.000182  0.000031  0.000000
  0.000031  -0.000013  0.000000
  0.000000  0.000000  0.000000

  -0.000073  0.000011  0.000000
  0.000011  -0.000013  0.000000
  0.000000  0.000000  0.000000

  -0.000127  0.000019  0.000000
  0.000019  -0.000013  0.000000
  0.000000  0.000000  0.000000

  -0.000054  0.000005  0.000000
  0.000005  -0.000012  0.000000
  0.000000  0.000000  0.000000

  -0.000115  0.000011  0.000000
  0.000011  -0.000017  0.000000
  0.000000  0.000000  0.000000

  -0.000037  -0.000005  0.000000
  -0.000005  -0.000015  0.000000
  0.000000  0.000000  0.000000

  -0.000132  0.000012  0.000000
  0.000012  -0.000017  0.000000
  0.000000  0.000000  0.000000

  -0.000149  0.000022  0.000000
  0.000022  -0.000013  0.000000
  0.000000  0.000000  0.000000

  -0.000127  0.000010  0.000000
  0.000010  -0.000017  0.000000
  0.000000  0.000000  0.000000

  -0.000153  0.000015  0.000000
  0.000015  -0.000015  0.000000
  0.000000  0.000000  0.000000

  -0.000159  0.000017  0.000000
  0.000017  -0.000016  0.000000
  0.000000  0.000000  0.000000

  -0.000176  0.000027  0.000000
  0.000027  -0.000012  0.000000
  0.000000  0.000000  0.000000

  -0.000181  0.000020  0.000000
  0.000020  -0.000014  0.000000
  0.000000  0.000000  0.000000

  -0.000198  0.000030  0.000000
  0.000030  -0.000011  0.000000
  0.000000  0.000000  0.000000

  -0.000207  0.000034  0.000000
  0.000034  -0.000012  0.000000
  0.000000  0.000000  0.000000

  -0.000121  0.000018  0.000000
  0.000018  -0.000013  0.000000
  0.000000  0.000000  0.000000

  -0.000099  0.000006  0.000000
  0.000006  -0.000017  0.000000
  0.000000  0.000000  0.000000

  -0.000139  0.000021  0.000000
  0.000021  -0.000013  0.000000
  0.000000  0.000000  0.000000

  -0.000171  0.000025  0.000000
  0.000025  -0.000011  0.000000
  0.000000  0.000000  0.000000

  -0.000176  0.000017  0.000000
  0.000017  -0.000015  0.000000
  0.000000  0.000000  0.000000

  -0.000193  0.000028  0.000000
  0.000028  -0.000011  0.000000
  0.000000  0.000000  0.000000

  -0.000170  0.000014  0.000000
  0.000014  -0.000013  0.000000
  0.000000  0.000000  0.000000

  -0.000198  0.000020  0.000000
  0.000020  -0.000012  0.000000
  0.000000  0.000000  0.000000

  -0.000093  0.000014  0.000000
  0.000014  -0.000013  0.000000
  0.000000  0.000000  0.000000

  -0.000078  0.000003  0.000000
  0.000003  -0.000017  0.000000
  0.000000  0.000000  0.000000

  -0.000073  0.000002  0.000000
  0.000002  -0.000017  0.000000
  0.000000  0.000000  0.000000

  -0.000167  0.000019  0.000000
  0.000019  -0.000009  0.000000
  0.000000  0.000000  0.000000

  -0.000186  0.000025  0.000000
  0.000025  -0.000010  0.000000
  0.000000  0.000000  0.000000

  -0.000217  0.000029  0.000000
  0.000029  -0.000008  0.000000
  0.000000  0.000000  0.000000

  -0.000087  0.000012  0.000000
  0.000012  -0.000013  0.000000
  0.000000  0.000000  0.000000

  -0.000199  0.000031  0.000000
  0.000031  -0.000015  0.000000
  0.000000  0.000000  0.000000

  -0.000064  0.000002  0.000000
  0.000002  -0.000017  0.000000
  0.000000  0.000000  0.000000

  -0.000024  -0.000005  0.000000
  -0.000005  -0.000016  0.000000
  0.000000  0.000000  0.000000

  -0.000022  -0.000002  0.000000
  -0.000002  -0.000010  0.000000
  0.000000  0.000000  0.000000

  -0.000000  -0.000000  0.000000
  -0.000000  -0.000018  0.000000
  0.000000  0.000000  0.000000

  -0.000204  0.000022  0.000000
  0.000022  -0.000015  0.000000
  0.000000  0.000000  0.000000

  -0.000120  0.000050  0.000000
  0.000050  -0.000030  0.000000
  0.000000  0.000000  0.000000

  0.000028  -0.000014  0.000000
  -0.000014  -0.000005  0.000000
  0.000000  0.000000  0.000000

  0.000075  -0.000028  0.000000
  -0.000028  -0.000007  0.000000
  0.000000  0.000000  0.000000

  0.000078  -0.000024  0.000000
  -0.000024  -0.000001  0.000000
  0.000000  0.000000  0.000000

  0.000093  -0.000033  0.000000
  -0.000033  -0.000005  0.000000
  0.000000  0.000000  0.000000

  0.000096  -0.000033  0.000000
  -0.000033  -0.000005  0.000000
  0.000000  0.000000  0.000000

  0.000099  -0.000028  0.000000
  -0.000028  0.000000  0.000000
  0.000000  0.000000  0.000000

  0.000113  -0.000037  0.000000
  -0.000037  -0.000003  0.000000
  0.000000  0.000000  0.000000

  0.000117  -0.000037  0.000000
  -0.000037  -0.000004  0.000000
  0.000000  0.000000  0.000000

  0.000096  -0.000028  0.000000
  -0.000028  0.000001  0.000000
  0.000000  0.000000  0.000000

  0.000110  -0.000038  0.000000
  -0.000038  -0.000003  0.000000
  0.000000  0.000000  0.000000

  0.000093  -0.000029  0.000000
  -0.000029  0.000002  0.000000
  0.000000  0.000000  0.000000

  0.000113  -0.000033  0.000000
  -0.000033  0.000004  0.000000
  0.000000  0.000000  0.000000

  0.000116  -0.000032  0.000000
  -0.000032  0.000003  0.000000
  0.000000  0.000000  0.000000

  0.000102  -0.000027  0.000000
  -0.000027  0.000000  0.000000
  0.000000  0.000000  0.000000

  0.000120  -0.000036  0.000000
  -0.000036  -0.000004  0.000000
  0.000000  0.000000  0.000000

  0.000107  -0.000039  0.000000
  -0.000039  -0.000002  0.000000
  0.000000  0.000000  0.000000

  0.000124  -0.000029  0.000000
  -0.000029  0.000001  0.000000
  0.000000  0.000000  0.000000

  0.000137  -0.000041  0.000000
  -0.000041  -0.000000  0.000000
  0.000000  0.000000  0.000000

  0.000106  -0.000026  0.000000
  -0.000026  -0.000000  0.000000
  0.000000  0.000000  0.000000

  0.000121  -0.000031  0.000000
  -0.000031  0.000002  0.000000
  0.000000  0.000000  0.000000

  0.000090  -0.000034  0.000000
  -0.000034  -0.000005  0.000000
  0.000000  0.000000  0.000000

  0.000128  -0.000043  0.000000
  -0.000043  0.000000  0.000000
  0.000000  0.000000  0.000000

  -0.000217  0.000043  0.000000
  0.000043  -0.000015  0.000000
  0.000000  0.000000  0.000000

  -0.000220  0.000038  0.000000
  0.000038  -0.000014  0.000000
  0.000000  0.000000  0.000000

  -0.000248  0.000047  0.000000
  0.000047  -0.000011  0.000000
  0.000000  0.000000  0.000000

  -0.000250  0.000048  0.000000
  0.000048  -0.000010  0.000000
  0.000000  0.000000  0.000000

  -0.000215  0.000045  0.000000
  0.000045  -0.000016  0.000000
  0.000000  0.000000  0.000000

  0.000130  -0.000042  0.000000
  -0.000042  -0.000000  0.000000
  0.000000  0.000000  0.000000

  0.000133  -0.000037  0.000000
  -0.000037  0.000007  0.000000
  0.000000  0.000000  0.000000

  0.000147  -0.000048  0.000000
  -0.000048  0.000003  0.000000
  0.000000  0.000000  0.000000

  0.000150  -0.000046  0.000000
  -0.000046  0.000003  0.000000
  0.000000  0.000000  0.000000

  -0.000025  0.000002  0.000000
  0.000002  -0.000011  0.000000
  0.000000  0.000000  0.000000

  -0.000206  0.000050  0.000000
  0.000050  -0.000016  0.000000
  0.000000  0.000000  0.000000

  -0.000222  0.000034  0.000000
  0.000034  -0.000011  0.000000
  0.000000  0.000000  0.000000

  -0.000233  0.000019  0.000000
  0.000019  -0.000008  0.000000
  0.000000  0.000000  0.000000

  -0.000219  0.000026  0.000000
  0.000026  -0.000014  0.000000
  0.000000  0.000000  0.000000

  0.000078  -0.000049  0.000000
  -0.000049  0.000012  0.000000
  0.000000  0.000000  0.000000

  -0.000145  0.000061  0.000000
  0.000061  -0.000033  0.000000
  0.000000  0.000000  0.000000

  -0.000143  0.000062  0.000000
  0.000062  -0.000034  0.000000
  0.000000  0.000000  0.000000

  -0.000141  0.000062  0.000000
  0.000062  -0.000041  0.000000
  0.000000  0.000000  0.000000

  -0.000163  0.000073  0.000000
  0.000073  -0.000038  0.000000
  0.000000  0.000000  0.000000

  -0.000161  0.000070  0.000000
  0.000070  -0.000038  0.000000
  0.000000  0.000000  0.000000

  -0.000144  0.000061  0.000000
  0.000061  -0.000040  0.000000
  0.000000  0.000000  0.000000

  -0.000160  0.000074  0.000000
  0.000074  -0.000044  0.000000
  0.000000  0.000000  0.000000

  -0.000155  0.000080  0.000000
  0.000080  -0.000047  0.000000
  0.000000  0.000000  0.000000

  -0.000138  0.000061  0.000000
  0.000061  -0.000041  0.000000
  0.000000  0.000000  0.000000

  0.000057  -0.000019  0.000000
  -0.000019  -0.000003  0.000000
  0.000000  0.000000  0.000000

  0.000080  -0.000045  0.000000
  -0.000045  0.000017  0.000000
  0.000000  0.000000  0.000000

  0.000095  -0.000054  0.000000
  -0.000054  0.000014  0.000000
  0.000000  0.000000  0.000000

  0.000080  -0.000045  0.000000
  -0.000045  0.000018  0.000000
  0.000000  0.000000  0.000000

  0.000096  -0.000052  0.000000
  -0.000052  0.000022  0.000000
  0.000000  0.000000  0.000000

  0.000110  -0.000061  0.000000
  -0.000061  0.000019  0.000000
  0.000000  0.000000  0.000000

  0.000096  -0.000053  0.000000
  -0.000053  0.000023  0.000000
  0.000000  0.000000  0.000000

  0.000111  -0.000058  0.000000
  -0.000058  0.000027  0.000000
  0.000000  0.000000  0.000000

  -0.000077  0.000021  0.000000
  0.000021  -0.000023  0.000000
  0.000000  0.000000  0.000000

  -0.000209  0.000050  0.000000
  0.000050  -0.000017  0.000000
  0.000000  0.000000  0.000000

  -0.000216  0.000026  0.000000
  0.000026  -0.000012  0.000000
  0.000000  0.000000  0.000000

  0.000128  -0.000054  0.000000
  -0.000054  0.000008  0.000000
  0.000000  0.000000  0.000000

  -0.000179  0.000071  0.000000
  0.000071  -0.000038  0.000000
  0.000000  0.000000  0.000000

  -0.000142  0.000044  0.000000
  0.000044  -0.000029  0.000000
  0.000000  0.000000  0.000000

  0.000072  -0.000024  0.000000
  -0.000024  -0.000001  0.000000
  0.000000  0.000000  0.000000

  0.000050  -0.000032  0.000000
  -0.000032  -0.000001  0.000000
  0.000000  0.000000  0.000000

  0.000034  -0.000022  0.000000
  -0.000022  0.000002  0.000000
  0.000000  0.000000  0.000000

  0.000033  -0.000024  0.000000
  -0.000024  -0.000005  0.000000
  0.000000  0.000000  0.000000

  -0.000021  -0.000007  0.000000
  -0.000007  -0.000013  0.000000
  0.000000  0.000000  0.000000

  0.000063  -0.000039  0.000000
  -0.000039  0.000015  0.000000
  0.000000  0.000000  0.000000

  0.000079  -0.000048  0.000000
  -0.000048  0.000011  0.000000
  0.000000  0.000000  0.000000

  -0.000014  -0.000007  0.000000
  -0.000007  -0.000001  0.000000
  0.000000  0.000000  0.000000

  -0.000185  0.000042  0.000000
  0.000042  -0.000016  0.000000
  0.000000  0.000000  0.000000

  0.000051  -0.000019  0.000000
  -0.000019  -0.000003  0.000000
  0.000000  0.000000  0.000000

  0.000066  -0.000029  0.000000
  -0.000029  -0.000006  0.000000
  0.000000  0.000000  0.000000

  0.000068  -0.000025  0.000000
  -0.000025  -0.000000  0.000000
  0.000000  0.000000  0.000000

  0.000084  -0.000034  0.000000
  -0.000034  -0.000004  0.000000
  0.000000  0.000000  0.000000

  0.000087  -0.000034  0.000000
  -0.000034  -0.000004  0.000000
  0.000000  0.000000  0.000000

  0.000090  -0.000029  0.000000
  -0.000029  0.000002  0.000000
  0.000000  0.000000  0.000000

  0.000066  -0.000025  0.000000
  -0.000025  0.000001  0.000000
  0.000000  0.000000  0.000000

  0.000086  -0.000030  0.000000
  -0.000030  0.000003  0.000000
  0.000000  0.000000  0.000000

  -0.000035  0.000004  0.000000
  0.000004  -0.000008  0.000000
  0.000000  0.000000  0.000000

  -0.000017  -0.000005  0.000000
  -0.000005  -0.000011  0.000000
  0.000000  0.000000  0.000000

  -0.000139  0.000061  0.000000
  0.000061  -0.000034  0.000000
  0.000000  0.000000  0.000000

  -0.000118  0.000050  0.000000
  0.000050  -0.000037  0.000000
  0.000000  0.000000  0.000000

  -0.000136  0.000061  0.000000
  0.000061  -0.000034  0.000000
  0.000000  0.000000  0.000000

  0.000032  -0.000029  0.000000
  -0.000029  0.000002  0.000000
  0.000000  0.000000  0.000000

  -0.000104  0.000040  0.000000
  0.000040  -0.000025  0.000000
  0.000000  0.000000  0.000000

  0.000057  -0.000030  0.000000
  -0.000030  -0.000005  0.000000
  0.000000  0.000000  0.000000

  -0.000149  0.000061  0.000000
  0.000061  -0.000032  0.000000
  0.000000  0.000000  0.000000

  -0.000148  0.000061  0.000000
  0.000061  -0.000038  0.000000
  0.000000  0.000000  0.000000

  -0.000170  0.000072  0.000000
  0.000072  -0.000035  0.000000
  0.000000  0.000000  0.000000

  -0.000166  0.000072  0.000000
  0.000072  -0.000036  0.000000
  0.000000  0.000000  0.000000

  -0.000163  0.000074  0.000000
  0.000074  -0.000043  0.000000
  0.000000  0.000000  0.000000

  -0.000010  -0.000007  0.000000
  -0.000007  -0.000016  0.000000
  0.000000  0.000000  0.000000

  -0.000084  0.000016  0.000000
  0.000016  -0.000014  0.000000
  0.000000  0.000000  0.000000

  -0.000051  -0.000001  0.000000
  -0.000001  -0.000017  0.000000
  0.000000  0.000000  0.000000

  -0.000187  0.000024  0.000000
  0.000024  -0.000015  0.000000
  0.000000  0.000000  0.000000

  -0.000214  0.000036  0.000000
  0.000036  -0.000012  0.000000
  0.000000  0.000000  0.000000

  -0.000215  0.000032  0.000000
  0.000032  -0.000014  0.000000
  0.000000  0.000000  0.000000

  -0.000045  0.000025  0.000000
  0.000025  -0.000028  0.000000
  0.000000  0.000000  0.000000

  -0.000012  0.000009  0.000000
  0.000009  0.000004  0.000000
  0.000000  0.000000  0.000000

  -0.000017  0.000006  0.000000
  0.000006  0.000014  0.000000
  0.000000  0.000000  0.000000

  0.000062  -0.000066  0.000000
  -0.000066  0.000070  0.000000
  0.000000  0.000000  0.000000

  -0.000010  -0.000005  0.000000
  -0.000005  0.000027  0.000000
  0.000000  0.000000  0.000000

  0.000037  -0.000053  0.000000
  -0.000053  0.000077  0.000000
  0.000000  0.000000  0.000000

  0.000031  -0.000056  0.000000
  -0.000056  0.000077  0.000000
  0.000000  0.000000  0.000000

  0.000024  -0.000051  0.000000
  -0.000051  0.000071  0.000000
  0.000000  0.000000  0.000000

  0.000090  -0.000074  0.000000
  -0.000074  0.000060  0.000000
  0.000000  0.000000  0.000000

  0.000086  -0.000078  0.000000
  -0.000078  0.000056  0.000000
  0.000000  0.000000  0.000000

  0.000076  -0.000064  0.000000
  -0.000064  0.000053  0.000000
  0.000000  0.000000  0.000000

  0.000179  -0.000040  0.000000
  -0.000040  0.000009  0.000000
  0.000000  0.000000  0.000000

  0.000178  -0.000042  0.000000
  -0.000042  -0.000001  0.000000
  0.000000  0.000000  0.000000

  0.000166  -0.000032  0.000000
  -0.000032  0.000007  0.000000
  0.000000  0.000000  0.000000

  0.000029  -0.000048  0.000000
  -0.000048  0.000077  0.000000
  0.000000  0.000000  0.000000

  0.000023  -0.000041  0.000000
  -0.000041  0.000067  0.000000
  0.000000  0.000000  0.000000

  -0.000071  0.000061  0.000000
  0.000061  -0.000066  0.000000
  0.000000  0.000000  0.000000

  -0.000000  0.000002  0.000000
  0.000002  0.000019  0.000000
  0.000000  0.000000  0.000000

  -0.000002  0.000003  0.000000
  0.000003  0.000020  0.000000
  0.000000  0.000000  0.000000

  -0.000001  0.000003  0.000000
  0.000003  0.000019  0.000000
  0.000000  0.000000  0.000000

  -0.000038  0.000013  0.000000
  0.000013  -0.000012  0.000000
  0.000000  0.000000  0.000000

  -0.000127  0.000013  0.000000
  0.000013  -0.000008  0.000000
  0.000000  0.000000  0.000000

  -0.000104  0.000074  0.000000
  0.000074  -0.000066  0.000000
  0.000000  0.000000  0.000000

  -0.000124  0.000091  0.000000
  0.000091  -0.000072  0.000000
  0.000000  0.000000  0.000000

  0.000169  -0.000053  0.000000
  -0.000053  0.000016  0.000000
  0.000000  0.000000  0.000000

  0.000002  -0.000013  0.000000
  -0.000013  0.000053  0.000000
  0.000000  0.000000  0.000000

  0.000001  -0.000013  0.000000
  -0.000013  0.000054  0.000000
  0.000000  0.000000  0.000000

  -0.000001  -0.000008  0.000000
  -0.000008  0.000049  0.000000
  0.000000  0.000000  0.000000

  -0.000007  -0.000008  0.000000
  -0.000008  0.000040  0.000000
  0.000000  0.000000  0.000000

  -0.000033  0.000025  0.000000
  0.000025  -0.000024  0.000000
  0.000000  0.000000  0.000000

  -0.000032  0.000023  0.000000
  0.000023  -0.000029  0.000000
  0.000000  0.000000  0.000000

  -0.000036  0.000033  0.000000
  0.000033  -0.000035  0.000000
  0.000000  0.000000  0.000000

  -0.000037  0.000031  0.000000
  0.000031  -0.000030  0.000000
  0.000000  0.000000  0.000000

  -0.000033  0.000030  0.000000
  0.000030  -0.000032  0.000000
  0.000000  0.000000  0.000000

  -0.000029  0.000029  0.000000
  0.000029  -0.000042  0.000000
  0.000000  0.000000  0.000000

  -0.000035  0.000036  0.000000
  0.000036  -0.000043  0.000000
  0.000000  0.000000  0.000000

  -0.000033  0.000033  0.000000
  0.000033  -0.000038  0.000000
  0.000000  0.000000  0.000000

  -0.000031  0.000032  0.000000
  0.000032  -0.000047  0.000000
  0.000000  0.000000  0.000000

  -0.000031  0.000035  0.000000
  0.000035  -0.000054  0.000000
  0.000000  0.000000  0.000000

  -0.000029  0.000032  0.000000
  0.000032  -0.000049  0.000000
  0.000000  0.000000  0.000000

  -0.000027  0.000026  0.000000
  0.000026  -0.000037  0.000000
  0.000000  0.000000  0.000000

  0.000031  -0.000050  0.000000
  -0.000050  0.000077  0.000000
  0.000000  0.000000  0.000000

  0.000026  -0.000051  0.000000
  -0.000051  0.000078  0.000000
  0.000000  0.000000  0.000000

  0.000027  -0.000046  0.000000
  -0.000046  0.000068  0.000000
  0.000000  0.000000  0.000000

  0.000026  -0.000045  0.000000
  -0.000045  0.000070  0.000000
  0.000000  0.000000  0.000000

  -0.000002  -0.000009  0.000000
  -0.000009  0.000052  0.000000
  0.000000  0.000000  0.000000

  0.000093  -0.000001  0.000000
  -0.000001  -0.000007  0.000000
  0.000000  0.000000  0.000000

  -0.000004  -0.000017  0.000000
  -0.000017  0.000005  0.000000
  0.000000  0.000000  0.000000

  0.000100  -0.000075  0.000000
  -0.000075  0.000055  0.000000
  0.000000  0.000000  0.000000

  0.000099  -0.000077  0.000000
  -0.000077  0.000050  0.000000
  0.000000  0.000000  0.000000

  -0.000012  -0.000013  0.000000
  -0.000013  0.000005  0.000000
  0.000000  0.000000  0.000000

  0.000188  -0.000024  0.000000
  -0.000024  0.000003  0.000000
  0.000000  0.000000  0.000000

  0.000079  -0.000061  0.000000
  -0.000061  0.000042  0.000000
  0.000000  0.000000  0.000000

  -0.000032  0.000024  0.000000
  0.000024  -0.000019  0.000000
  0.000000  0.000000  0.000000

  -0.000000  0.000001  0.000000
  0.000001  0.000022  0.000000
  0.000000  0.000000  0.000000

  -0.000047  0.000025  0.000000
  0.000025  -0.000028  0.000000
  0.000000  0.000000  0.000000

  -0.000010  -0.000004  0.000000
  -0.000004  0.000034  0.000000
  0.000000  0.000000  0.000000

  -0.000003  0.000009  0.000000
  0.000009  0.000002  0.000000
  0.000000  0.000000  0.000000

  0.000155  -0.000062  0.000000
  -0.000062  0.000025  0.000000
  0.000000  0.000000  0.000000

  -0.000068  0.000031  0.000000
  0.000031  -0.000024  0.000000
  0.000000  0.000000  0.000000

  -0.000042  0.000031  0.000000
  0.000031  -0.000029  0.000000
  0.000000  0.000000  0.000000

  -0.000027  0.000009  0.000000
  0.000009  -0.000004  0.000000
  0.000000  0.000000  0.000000

  0.000034  -0.000051  0.000000
  -0.000051  0.000077  0.000000
  0.000000  0.000000  0.000000

  0.000028  -0.000053  0.000000
  -0.000053  0.000077  0.000000
  0.000000  0.000000  0.000000

  -0.000031  0.000027  0.000000
  0.000027  -0.000027  0.000000
  0.000000  0.000000  0.000000

  -0.000024  0.000020  0.000000
  0.000020  -0.000025  0.000000
  0.000000  0.000000  0.000000

  -0.000029  0.000024  0.000000
  0.000024  -0.000022  0.000000
  0.000000  0.000000  0.000000

  -0.000025  0.000023  0.000000
  0.000023  -0.000032  0.000000
  0.000000  0.000000  0.000000

  -0.000022  0.000017  0.000000
  0.000017  -0.000021  0.000000
  0.000000  0.000000  0.000000

  -0.000012  0.000011  0.000000
  0.000011  0.000004  0.000000
  0.000000  0.000000  0.000000

  0.000002  -0.000013  0.000000
  -0.000013  0.000055  0.000000
  0.000000  0.000000  0.000000

  0.000000  -0.000014  0.000000
  -0.000014  0.000055  0.000000
  0.000000  0.000000  0.000000

  0.000000  -0.000009  0.000000
  -0.000009  0.000050  0.000000
  0.000000  0.000000  0.000000

  -0.000126  0.000079  0.000000
  0.000079  -0.000060  0.000000
  0.000000  0.000000  0.000000

  -0.000016  0.000032  0.000000
  0.000032  -0.000067  0.000000
  0.000000  0.000000  0.000000

  -0.000017  0.000030  0.000000
  0.000030  -0.000068  0.000000
  0.000000  0.000000  0.000000

  -0.000017  0.000028  0.000000
  0.000028  -0.000058  0.000000
  0.000000  0.000000  0.000000

  -0.000018  0.000036  0.000000
  0.000036  -0.000079  0.000000
  0.000000  0.000000  0.000000

  -0.000015  0.000036  0.000000
  0.000036  -0.000088  0.000000
  0.000000  0.000000  0.000000

  -0.000015  0.000032  0.000000
  0.000032  -0.000079  0.000000
  0.000000  0.000000  0.000000

  -0.000016  0.000035  0.000000
  0.000035  -0.000078  0.000000
  0.000000  0.000000  0.000000

  -0.000016  0.000030  0.000000
  0.000030  -0.000068  0.000000
  0.000000  0.000000  0.000000

  -0.000017  0.000031  0.000000
  0.000031  -0.000069  0.000000
  0.000000  0.000000  0.000000

  -0.000018  0.000033  0.000000
  0.000033  -0.000068  0.000000
  0.000000  0.000000  0.000000

  -0.000052  -0.000004  0.000000
  -0.000004  -0.000008  0.000000
  0.000000  0.000000  0.000000

  0.000172  -0.000048  0.000000
  -0.000048  0.000012  0.000000
  0.000000  0.000000  0.000000

  0.000169  -0.000052  0.000000
  -0.000052  0.000009  0.000000
  0.000000  0.000000  0.000000

  0.000005  -0.000020  0.000000
  -0.000020  0.000058  0.000000
  0.000000  0.000000  0.000000

  0.000051  -0.000062  0.000000
  -0.000062  0.000075  0.000000
  0.000000  0.000000  0.000000

  0.000047  -0.000065  0.000000
  -0.000065  0.000072  0.000000
  0.000000  0.000000  0.000000

  0.000043  -0.000055  0.000000
  -0.000055  0.000069  0.000000
  0.000000  0.000000  0.000000

  -0.000035  0.000011  0.000000
  0.000011  -0.000012  0.000000
  0.000000  0.000000  0.000000

  -0.000000  0.000002  0.000000
  0.000002  0.000008  0.000000
  0.000000  0.000000  0.000000

  0.000189  -0.000018  0.000000
  -0.000018  0.000001  0.000000
  0.000000  0.000000  0.000000

  0.000189  -0.000020  0.000000
  -0.000020  -0.000007  0.000000
  0.000000  0.000000  0.000000

  0.000170  -0.000017  0.000000
  -0.000017  -0.000000  0.000000
  0.000000  0.000000  0.000000

  0.000169  -0.000019  0.000000
  -0.000019  0.000001  0.000000
  0.000000  0.000000  0.000000

  -0.000086  0.000075  0.000000
  0.000075  -0.000079  0.000000
  0.000000  0.000000  0.000000

  -0.000000  0.000002  0.000000
  0.000002  0.000013  0.000000
  0.000000  0.000000  0.000000

  -0.000001  0.000004  0.000000
  0.000004  0.000014  0.000000
  0.000000  0.000000  0.000000

  -0.000003  0.000011  0.000000
  0.000011  0.000001  0.000000
  0.000000  0.000000  0.000000

  0.000176  -0.000045  0.000000
  -0.000045  0.000014  0.000000
  0.000000  0.000000  0.000000

  -0.000085  0.000064  0.000000
  0.000064  -0.000063  0.000000
  0.000000  0.000000  0.000000

  0.000119  -0.000074  0.000000
  -0.000074  0.000045  0.000000
  0.000000  0.000000  0.000000

  0.000118  -0.000078  0.000000
  -0.000078  0.000039  0.000000
  0.000000  0.000000  0.000000

  0.000106  -0.000066  0.000000
  -0.000066  0.000039  0.000000
  0.000000  0.000000  0.000000

  0.000106  -0.000067  0.000000
  -0.000067  0.000036  0.000000
  0.000000  0.000000  0.000000

  0.000092  -0.000068  0.000000
  -0.000068  0.000039  0.000000
  0.000000  0.000000  0.000000

  0.000040  -0.000056  0.000000
  -0.000056  0.000077  0.000000
  0.000000  0.000000  0.000000

  0.000031  -0.000055  0.000000
  -0.000055  0.000079  0.000000
  0.000000  0.000000  0.000000

  0.000039  -0.000058  0.000000
  -0.000058  0.000073  0.000000
  0.000000  0.000000  0.000000

  -0.000061  0.000056  0.000000
  0.000056  -0.000066  0.000000
  0.000000  0.000000  0.000000

  -0.000067  0.000066  0.000000
  0.000066  -0.000072  0.000000
  0.000000  0.000000  0.000000

  -0.000065  0.000066  0.000000
  0.000066  -0.000079  0.000000
  0.000000  0.000000  0.000000

  -0.000000  -0.000004  0.000000
  -0.000004  0.000039  0.000000
  0.000000  0.000000  0.000000

  0.000121  -0.000074  0.000000
  -0.000074  0.000045  0.000000
  0.000000  0.000000  0.000000

  0.000129  -0.000072  0.000000
  -0.000072  0.000040  0.000000
  0.000000  0.000000  0.000000

  0.000126  -0.000076  0.000000
  -0.000076  0.000035  0.000000
  0.000000  0.000000  0.000000

  0.000112  -0.000066  0.000000
  -0.000066  0.000038  0.000000
  0.000000  0.000000  0.000000

  0.000111  -0.000069  0.000000
  -0.000069  0.000032  0.000000
  0.000000  0.000000  0.000000

  0.000120  -0.000079  0.000000
  -0.000079  0.000037  0.000000
  0.000000  0.000000  0.000000

  0.000097  -0.000059  0.000000
  -0.000059  0.000033  0.000000
  0.000000  0.000000  0.000000

  0.000099  -0.000060  0.000000
  -0.000060  0.000033  0.000000
  0.000000  0.000000  0.000000

  0.000021  -0.000040  0.000000
  -0.000040  0.000075  0.000000
  0.000000  0.000000  0.000000

  -0.000005  -0.000003  0.000000
  -0.000003  0.000035  0.000000
  0.000000  0.000000  0.000000

  -0.000002  0.000014  0.000000
  0.000014  0.000000  0.000000
  0.000000  0.000000  0.000000

  -0.000017  -0.000002  0.000000
  -0.000002  -0.000000  0.000000
  0.000000  0.000000  0.000000

  -0.000010  0.000021  0.000000
  0.000021  -0.000041  0.000000
  0.000000  0.000000  0.000000

  0.000182  -0.000037  0.000000
  -0.000037  0.000010  0.000000
  0.000000  0.000000  0.000000

  0.000005  -0.000018  0.000000
  -0.000018  0.000061  0.000000
  0.000000  0.000000  0.000000

  -0.000010  0.000000  0.000000
  0.000000  0.000031  0.000000
  0.000000  0.000000  0.000000

  0.000117  -0.000073  0.000000
  -0.000073  0.000045  0.000000
  0.000000  0.000000  0.000000

  0.000112  -0.000077  0.000000
  -0.000077  0.000042  0.000000
  0.000000  0.000000  0.000000

  0.000016  -0.000034  0.000000
  -0.000034  0.000071  0.000000
  0.000000  0.000000  0.000000

  0.000011  -0.000035  0.000000
  -0.000035  0.000072  0.000000
  0.000000  0.000000  0.000000

  0.000007  -0.000021  0.000000
  -0.000021  0.000063  0.000000
  0.000000  0.000000  0.000000

  0.000002  -0.000020  0.000000
  -0.000020  0.000065  0.000000
  0.000000  0.000000  0.000000

  0.000187  -0.000025  0.000000
  -0.000025  0.000003  0.000000
  0.000000  0.000000  0.000000

  0.000186  -0.000027  0.000000
  -0.000027  -0.000006  0.000000
  0.000000  0.000000  0.000000

  0.000169  -0.000023  0.000000
  -0.000023  0.000001  0.000000
  0.000000  0.000000  0.000000

  0.000188  -0.000026  0.000000
  -0.000026  -0.000007  0.000000
  0.000000  0.000000  0.000000

  0.000170  -0.000018  0.000000
  -0.000018  0.000002  0.000000
  0.000000  0.000000  0.000000

  0.000168  -0.000025  0.000000
  -0.000025  -0.000007  0.000000
  0.000000  0.000000  0.000000

  0.000149  -0.000019  0.000000
  -0.000019  0.000000  0.000000
  0.000000  0.000000  0.000000

  0.000149  -0.000021  0.000000
  -0.000021  -0.000000  0.000000
  0.000000  0.000000  0.000000

  0.000167  -0.000026  0.000000
  -0.000026  -0.000007  0.000000
  0.000000  0.000000  0.000000

  0.000148  -0.000023  0.000000
  -0.000023  0.000000  0.000000
  0.000000  0.000000  0.000000

  0.000166  -0.000028  0.000000
  -0.000028  -0.000007  0.000000
  0.000000  0.000000  0.000000

  0.000148  -0.000023  0.000000
  -0.000023  -0.000009  0.000000
  0.000000  0.000000  0.000000

  0.000130  -0.000018  0.000000
  -0.000018  -0.000002  0.000000
  0.000000  0.000000  0.000000

  0.000149  -0.000021  0.000000
  -0.000021  -0.000010  0.000000
  0.000000  0.000000  0.000000

  0.000131  -0.000017  0.000000
  -0.000017  -0.000003  0.000000
  0.000000  0.000000  0.000000

  0.000129  -0.000020  0.000000
  -0.000020  -0.000011  0.000000
  0.000000  0.000000  0.000000

  0.000129  -0.000019  0.000000
  -0.000019  -0.000002  0.000000
  0.000000  0.000000  0.000000

  0.000151  -0.000021  0.000000
  -0.000021  -0.000010  0.000000
  0.000000  0.000000  0.000000

  0.000130  -0.000019  0.000000
  -0.000019  -0.000011  0.000000
  0.000000  0.000000  0.000000

  0.000110  -0.000015  0.000000
  -0.000015  -0.000004  0.000000
  0.000000  0.000000  0.000000

  0.000109  -0.000017  0.000000
  -0.000017  -0.000004  0.000000
  0.000000  0.000000  0.000000

  0.000109  -0.000018  0.000000
  -0.000018  -0.000012  0.000000
  0.000000  0.000000  0.000000

  0.000089  -0.000013  0.000000
  -0.000013  -0.000006  0.000000
  0.000000  0.000000  0.000000

  0.000088  -0.000015  0.000000
  -0.000015  -0.000005  0.000000
  0.000000  0.000000  0.000000

  0.000088  -0.000016  0.000000
  -0.000016  -0.000013  0.000000
  0.000000  0.000000  0.000000

  0.000068  -0.000011  0.000000
  -0.000011  -0.000007  0.000000
  0.000000  0.000000  0.000000

  0.000067  -0.000013  0.000000
  -0.000013  -0.000006  0.000000
  0.000000  0.000000  0.000000

  0.000110  -0.000017  0.000000
  -0.000017  -0.000013  0.000000
  0.000000  0.000000  0.000000

  0.000090  -0.000012  0.000000
  -0.000012  -0.000006  0.000000
  0.000000  0.000000  0.000000

  0.000111  -0.000016  0.000000
  -0.000016  -0.000013  0.000000
  0.000000  0.000000  0.000000

  0.000090  -0.000014  0.000000
  -0.000014  -0.000014  0.000000
  0.000000  0.000000  0.000000

  0.000089  -0.000016  0.000000
  -0.000016  -0.000014  0.000000
  0.000000  0.000000  0.000000

  0.000069  -0.000011  0.000000
  -0.000011  -0.000007  0.000000
  0.000000  0.000000  0.000000

  0.000068  -0.000013  0.000000
  -0.000013  -0.000015  0.000000
  0.000000  0.000000  0.000000

  0.000048  -0.000008  0.000000
  -0.000008  -0.000008  0.000000
  0.000000  0.000000  0.000000

  0.000047  -0.000009  0.000000
  -0.000009  -0.000008  0.000000
  0.000000  0.000000  0.000000

  0.000111  -0.000014  0.000000
  -0.000014  -0.000004  0.000000
  0.000000  0.000000  0.000000

  0.000132  -0.000018  0.000000
  -0.000018  -0.000011  0.000000
  0.000000  0.000000  0.000000

  0.000069  -0.000012  0.000000
  -0.000012  -0.000015  0.000000
  0.000000  0.000000  0.000000

  0.000047  -0.000010  0.000000
  -0.000010  -0.000016  0.000000
  0.000000  0.000000  0.000000

  0.000132  -0.000015  0.000000
  -0.000015  -0.000003  0.000000
  0.000000  0.000000  0.000000

  0.000152  -0.000019  0.000000
  -0.000019  -0.000010  0.000000
  0.000000  0.000000  0.000000

  0.000067  -0.000014  0.000000
  -0.000014  -0.000015  0.000000
  0.000000  0.000000  0.000000

  0.000046  -0.000009  0.000000
  -0.000009  -0.000008  0.000000
  0.000000  0.000000  0.000000

  0.000067  -0.000013  0.000000
  -0.000013  -0.000015  0.000000
  0.000000  0.000000  0.000000

  0.000046  -0.000011  0.000000
  -0.000011  -0.000016  0.000000
  0.000000  0.000000  0.000000

  0.000025  -0.000006  0.000000
  -0.000006  -0.000009  0.000000
  0.000000  0.000000  0.000000

  0.000025  -0.000008  0.000000
  -0.000008  -0.000017  0.000000
  0.000000  0.000000  0.000000

  0.000024  -0.000007  0.000000
  -0.000007  -0.000009  0.000000
  0.000000  0.000000  0.000000

  0.000024  -0.000009  0.000000
  -0.000009  -0.000017  0.000000
  0.000000  0.000000  0.000000

  0.000003  -0.000003  0.000000
  -0.000003  -0.000010  0.000000
  0.000000  0.000000  0.000000

  0.000003  -0.000004  0.000000
  -0.000004  -0.000010  0.000000
  0.000000  0.000000  0.000000

  0.000002  -0.000005  0.000000
  -0.000005  -0.000018  0.000000
  0.000000  0.000000  0.000000

  -0.000020  0.000000  0.000000
  0.000000  -0.000011  0.000000
  0.000000  0.000000  0.000000

  -0.000023  -0.000001  0.000000
  -0.000001  -0.000009  0.000000
  0.000000  0.000000  0.000000

  0.000046  -0.000010  0.000000
  -0.000010  -0.000007  0.000000
  0.000000  0.000000  0.000000

  0.000001  -0.000004  0.000000
  -0.000004  -0.000009  0.000000
  0.000000  0.000000  0.000000

  0.000025  -0.000008  0.000000
  -0.000008  -0.000017  0.000000
  0.000000  0.000000  0.000000

  0.000003  -0.000006  0.000000
  -0.000006  -0.000017  0.000000
  0.000000  0.000000  0.000000

  -0.000018  -0.000000  0.000000
  -0.000000  -0.000010  0.000000
  0.000000  0.000000  0.000000

  0.000004  -0.000005  0.000000
  -0.000005  -0.000017  0.000000
  0.000000  0.000000  0.000000

  -0.000018  -0.000002  0.000000
  -0.000002  -0.000018  0.000000
  0.000000  0.000000  0.000000

  -0.000019  0.000004  0.000000
  0.000004  -0.000017  0.000000
  0.000000  0.000000  0.000000

  0.000091  -0.000011  0.000000
  -0.000011  -0.000006  0.000000
  0.000000  0.000000  0.000000

  0.000113  -0.000013  0.000000
  -0.000013  -0.000004  0.000000
  0.000000  0.000000  0.000000

  0.000070  -0.000010  0.000000
  -0.000010  -0.000007  0.000000
  0.000000  0.000000  0.000000

  0.000091  -0.000014  0.000000
  -0.000014  -0.000014  0.000000
  0.000000  0.000000  0.000000

  0.000071  -0.000009  0.000000
  -0.000009  -0.000007  0.000000
  0.000000  0.000000  0.000000

  0.000092  -0.000013  0.000000
  -0.000013  -0.000014  0.000000
  0.000000  0.000000  0.000000

  0.000071  -0.000011  0.000000
  -0.000011  -0.000015  0.000000
  0.000000  0.000000  0.000000

  0.000087  -0.000017  0.000000
  -0.000017  -0.000013  0.000000
  0.000000  0.000000  0.000000

  0.000066  -0.000014  0.000000
  -0.000014  -0.000006  0.000000
  0.000000  0.000000  0.000000

  0.000066  -0.000015  0.000000
  -0.000015  -0.000014  0.000000
  0.000000  0.000000  0.000000

  0.000047  -0.000010  0.000000
  -0.000010  -0.000016  0.000000
  0.000000  0.000000  0.000000

  0.000027  -0.000005  0.000000
  -0.000005  -0.000009  0.000000
  0.000000  0.000000  0.000000

  0.000026  -0.000006  0.000000
  -0.000006  -0.000009  0.000000
  0.000000  0.000000  0.000000

  0.000048  -0.000009  0.000000
  -0.000009  -0.000016  0.000000
  0.000000  0.000000  0.000000

  0.000049  -0.000007  0.000000
  -0.000007  -0.000008  0.000000
  0.000000  0.000000  0.000000

  0.000026  -0.000007  0.000000
  -0.000007  -0.000017  0.000000
  0.000000  0.000000  0.000000

  0.000005  -0.000002  0.000000
  -0.000002  -0.000009  0.000000
  0.000000  0.000000  0.000000

  0.000005  -0.000003  0.000000
  -0.000003  -0.000010  0.000000
  0.000000  0.000000  0.000000

  0.000027  -0.000007  0.000000
  -0.000007  -0.000016  0.000000
  0.000000  0.000000  0.000000

  0.000005  -0.000004  0.000000
  -0.000004  -0.000017  0.000000
  0.000000  0.000000  0.000000

  0.000028  -0.000004  0.000000
  -0.000004  -0.000009  0.000000
  0.000000  0.000000  0.000000

  0.000050  -0.000009  0.000000
  -0.000009  -0.000015  0.000000
  0.000000  0.000000  0.000000

  0.000050  -0.000006  0.000000
  -0.000006  -0.000008  0.000000
  0.000000  0.000000  0.000000

  0.000072  -0.000010  0.000000
  -0.000010  -0.000014  0.000000
  0.000000  0.000000  0.000000

  0.000072  -0.000008  0.000000
  -0.000008  -0.000007  0.000000
  0.000000  0.000000  0.000000

  0.000093  -0.000012  0.000000
  -0.000012  -0.000013  0.000000
  0.000000  0.000000  0.000000

  0.000052  -0.000006  0.000000
  -0.000006  -0.000007  0.000000
  0.000000  0.000000  0.000000

  0.000094  -0.000009  0.000000
  -0.000009  -0.000005  0.000000
  0.000000  0.000000  0.000000

  0.000074  -0.000007  0.000000
  -0.000007  -0.000006  0.000000
  0.000000  0.000000  0.000000

  0.000030  -0.000004  0.000000
  -0.000004  -0.000008  0.000000
  0.000000  0.000000  0.000000

  0.000007  -0.000002  0.000000
  -0.000002  -0.000009  0.000000
  0.000000  0.000000  0.000000

  0.000051  -0.000008  0.000000
  -0.000008  -0.000015  0.000000
  0.000000  0.000000  0.000000

  0.000031  -0.000003  0.000000
  -0.000003  -0.000008  0.000000
  0.000000  0.000000  0.000000

  0.000053  -0.000008  0.000000
  -0.000008  -0.000014  0.000000
  0.000000  0.000000  0.000000

  0.000030  -0.000006  0.000000
  -0.000006  -0.000015  0.000000
  0.000000  0.000000  0.000000

  0.000073  -0.000010  0.000000
  -0.000010  -0.000014  0.000000
  0.000000  0.000000  0.000000

  0.000054  -0.000005  0.000000
  -0.000005  -0.000007  0.000000
  0.000000  0.000000  0.000000

  0.000075  -0.000009  0.000000
  -0.000009  -0.000014  0.000000
  0.000000  0.000000  0.000000

  0.000075  -0.000006  0.000000
  -0.000006  -0.000005  0.000000
  0.000000  0.000000  0.000000

  0.000057  -0.000004  0.000000
  -0.000004  -0.000007  0.000000
  0.000000  0.000000  0.000000

  0.000033  -0.000003  0.000000
  -0.000003  -0.000007  0.000000
  0.000000  0.000000  0.000000

  0.000097  -0.000012  0.000000
  -0.000012  -0.000013  0.000000
  0.000000  0.000000  0.000000

  0.000097  -0.000010  0.000000
  -0.000010  -0.000006  0.000000
  0.000000  0.000000  0.000000

  0.000118  -0.000015  0.000000
  -0.000015  -0.000012  0.000000
  0.000000  0.000000  0.000000

  0.000125  -0.000013  0.000000
  -0.000013  -0.000011  0.000000
  0.000000  0.000000  0.000000

  0.000121  -0.000010  0.000000
  -0.000010  -0.000004  0.000000
  0.000000  0.000000  0.000000

  0.000080  -0.000009  0.000000
  -0.000009  -0.000014  0.000000
  0.000000  0.000000  0.000000

  0.000138  -0.000017  0.000000
  -0.000017  -0.000011  0.000000
  0.000000  0.000000  0.000000

  0.000146  -0.000015  0.000000
  -0.000015  -0.000010  0.000000
  0.000000  0.000000  0.000000

  -0.000017  -0.000000  0.000000
  -0.000000  -0.000010  0.000000
  0.000000  0.000000  0.000000

  -0.000018  -0.000002  0.000000
  -0.000002  -0.000017  0.000000
  0.000000  0.000000  0.000000

  -0.000040  0.000003  0.000000
  0.000003  -0.000010  0.000000
  0.000000  0.000000  0.000000

  -0.000042  0.000003  0.000000
  0.000003  -0.000011  0.000000
  0.000000  0.000000  0.000000

  -0.000042  0.000001  0.000000
  0.000001  -0.000018  0.000000
  0.000000  0.000000  0.000000

  -0.000065  0.000006  0.000000
  0.000006  -0.000011  0.000000
  0.000000  0.000000  0.000000

  -0.000066  0.000004  0.000000
  0.000004  -0.000008  0.000000
  0.000000  0.000000  0.000000

  -0.000017  -0.000003  0.000000
  -0.000003  -0.000017  0.000000
  0.000000  0.000000  0.000000

  -0.000041  -0.000000  0.000000
  -0.000000  -0.000017  0.000000
  0.000000  0.000000  0.000000

  -0.000063  0.000005  0.000000
  0.000005  -0.000010  0.000000
  0.000000  0.000000  0.000000

  -0.000039  -0.000001  0.000000
  -0.000001  -0.000017  0.000000
  0.000000  0.000000  0.000000

  -0.000064  0.000002  0.000000
  0.000002  -0.000017  0.000000
  0.000000  0.000000  0.000000

  -0.000066  0.000003  0.000000
  0.000003  -0.000017  0.000000
  0.000000  0.000000  0.000000

  0.000008  -0.000002  0.000000
  -0.000002  -0.000009  0.000000
  0.000000  0.000000  0.000000

  0.000007  -0.000004  0.000000
  -0.000004  -0.000016  0.000000
  0.000000  0.000000  0.000000

  0.000029  -0.000007  0.000000
  -0.000007  -0.000016  0.000000
  0.000000  0.000000  0.000000

  -0.000014  0.000001  0.000000
  0.000001  -0.000009  0.000000
  0.000000  0.000000  0.000000

  -0.000015  -0.000000  0.000000
  -0.000000  -0.000009  0.000000
  0.000000  0.000000  0.000000

  0.000006  -0.000004  0.000000
  -0.000004  -0.000017  0.000000
  0.000000  0.000000  0.000000

  -0.000017  0.000000  0.000000
  0.000000  -0.000010  0.000000
  0.000000  0.000000  0.000000

  0.000009  -0.000004  0.000000
  -0.000004  -0.000015  0.000000
  0.000000  0.000000  0.000000

  -0.000015  -0.000002  0.000000
  -0.000002  -0.000016  0.000000
  0.000000  0.000000  0.000000

  -0.000016  -0.000002  0.000000
  -0.000002  -0.000017  0.000000
  0.000000  0.000000  0.000000

  -0.000038  0.000002  0.000000
  0.000002  -0.000009  0.000000
  0.000000  0.000000  0.000000

  -0.000038  0.000000  0.000000
  0.000000  -0.000016  0.000000
  0.000000  0.000000  0.000000

  -0.000038  0.000003  0.000000
  0.000003  -0.000010  0.000000
  0.000000  0.000000  0.000000

  -0.000061  0.000004  0.000000
  0.000004  -0.000009  0.000000
  0.000000  0.000000  0.000000

  -0.000062  0.000004  0.000000
  0.000004  -0.000010  0.000000
  0.000000  0.000000  0.000000

  -0.000062  0.000002  0.000000
  0.000002  -0.000016  0.000000
  0.000000  0.000000  0.000000

  -0.000085  0.000007  0.000000
  0.000007  -0.000009  0.000000
  0.000000  0.000000  0.000000

  -0.000087  0.000007  0.000000
  0.000007  -0.000010  0.000000
  0.000000  0.000000  0.000000

  -0.000087  0.000004  0.000000
  0.000004  -0.000016  0.000000
  0.000000  0.000000  0.000000

  -0.000110  0.000010  0.000000
  0.000010  -0.000009  0.000000
  0.000000  0.000000  0.000000

  -0.000112  0.000009  0.000000
  0.000009  -0.000010  0.000000
  0.000000  0.000000  0.000000

  -0.000061  0.000001  0.000000
  0.000001  -0.000016  0.000000
  0.000000  0.000000  0.000000

  -0.000084  0.000006  0.000000
  0.000006  -0.000008  0.000000
  0.000000  0.000000  0.000000

  -0.000060  0.000001  0.000000
  0.000001  -0.000015  0.000000
  0.000000  0.000000  0.000000

  -0.000084  0.000004  0.000000
  0.000004  -0.000015  0.000000
  0.000000  0.000000  0.000000

  -0.000086  0.000003  0.000000
  0.000003  -0.000016  0.000000
  0.000000  0.000000  0.000000

  -0.000109  0.000008  0.000000
  0.000008  -0.000009  0.000000
  0.000000  0.000000  0.000000

  -0.000110  0.000006  0.000000
  0.000006  -0.000015  0.000000
  0.000000  0.000000  0.000000

  -0.000133  0.000010  0.000000
  0.000010  -0.000008  0.000000
  0.000000  0.000000  0.000000

  -0.000135  0.000010  0.000000
  0.000010  -0.000008  0.000000
  0.000000  0.000000  0.000000

  -0.000059  0.000005  0.000000
  0.000005  -0.000008  0.000000
  0.000000  0.000000  0.000000

  -0.000108  0.000005  0.000000
  0.000005  -0.000014  0.000000
  0.000000  0.000000  0.000000

  -0.000135  0.000010  0.000000
  0.000010  -0.000015  0.000000
  0.000000  0.000000  0.000000

  -0.000112  0.000008  0.000000
  0.000008  -0.000017  0.000000
  0.000000  0.000000  0.000000

  -0.000082  0.000006  0.000000
  0.000006  -0.000007  0.000000
  0.000000  0.000000  0.000000

  -0.000111  0.000007  0.000000
  0.000007  -0.000016  0.000000
  0.000000  0.000000  0.000000

  -0.000136  0.000012  0.000000
  0.000012  -0.000009  0.000000
  0.000000  0.000000  0.000000

  -0.000137  0.000009  0.000000
  0.000009  -0.000015  0.000000
  0.000000  0.000000  0.000000

  -0.000161  0.000014  0.000000
  0.000014  -0.000009  0.000000
  0.000000  0.000000  0.000000

  -0.000161  0.000011  0.000000
  0.000011  -0.000014  0.000000
  0.000000  0.000000  0.000000

  -0.000186  0.000017  0.000000
  0.000017  -0.000007  0.000000
  0.000000  0.000000  0.000000

  -0.000187  0.000016  0.000000
  0.000016  -0.000007  0.000000
  0.000000  0.000000  0.000000

  -0.000162  0.000016  0.000000
  0.000016  -0.000009  0.000000
  0.000000  0.000000  0.000000

  -0.000160  0.000009  0.000000
  0.000009  -0.000013  0.000000
  0.000000  0.000000  0.000000

  -0.000187  0.000013  0.000000
  0.000013  -0.000012  0.000000
  0.000000  0.000000  0.000000

  -0.000187  0.000015  0.000000
  0.000015  -0.000013  0.000000
  0.000000  0.000000  0.000000

  -0.000163  0.000013  0.000000
  0.000013  -0.000016  0.000000
  0.000000  0.000000  0.000000

  -0.000188  0.000016  0.000000
  0.000016  -0.000004  0.000000
  0.000000  0.000000  0.000000

  -0.000108  0.000008  0.000000
  0.000008  -0.000007  0.000000
  0.000000  0.000000  0.000000

  -0.000083  0.000003  0.000000
  0.000003  -0.000015  0.000000
  0.000000  0.000000  0.000000

  -0.000106  0.000008  0.000000
  0.000008  -0.000006  0.000000
  0.000000  0.000000  0.000000

  -0.000088  0.000006  0.000000
  0.000006  -0.000017  0.000000
  0.000000  0.000000  0.000000

  -0.000113  0.000010  0.000000
  0.000010  -0.000010  0.000000
  0.000000  0.000000  0.000000

  -0.000088  0.000008  0.000000
  0.000008  -0.000010  0.000000
  0.000000  0.000000  0.000000

  -0.000113  0.000008  0.000000
  0.000008  -0.000017  0.000000
  0.000000  0.000000  0.000000

  -0.000089  0.000007  0.000000
  0.000007  -0.000018  0.000000
  0.000000  0.000000  0.000000

  -0.000137  0.000013  0.000000
  0.000013  -0.000010  0.000000
  0.000000  0.000000  0.000000

  -0.000138  0.000011  0.000000
  0.000011  -0.000017  0.000000
  0.000000  0.000000  0.000000

  -0.000138  0.000012  0.000000
  0.000012  -0.000008  0.000000
  0.000000  0.000000  0.000000

  -0.000134  0.000008  0.000000
  0.000008  -0.000015  0.000000
  0.000000  0.000000  0.000000

  -0.000158  0.000010  0.000000
  0.000010  -0.000006  0.000000
  0.000000  0.000000  0.000000

  -0.000159  0.000013  0.000000
  0.000013  -0.000007  0.000000
  0.000000  0.000000  0.000000

  -0.000133  0.000007  0.000000
  0.000007  -0.000013  0.000000
  0.000000  0.000000  0.000000

  -0.000158  0.000011  0.000000
  0.000011  -0.000013  0.000000
  0.000000  0.000000  0.000000

  -0.000133  0.000009  0.000000
  0.000009  -0.000007  0.000000
  0.000000  0.000000  0.000000

  -0.000157  0.000012  0.000000
  0.000012  -0.000003  0.000000
  0.000000  0.000000  0.000000

  -0.000185  0.000011  0.000000
  0.000011  -0.000005  0.000000
  0.000000  0.000000  0.000000

  -0.000185  0.000014  0.000000
  0.000014  -0.000007  0.000000
  0.000000  0.000000  0.000000

  -0.000185  0.000012  0.000000
  0.000012  -0.000010  0.000000
  0.000000  0.000000  0.000000

  -0.000216  0.000017  0.000000
  0.000017  -0.000006  0.000000
  0.000000  0.000000  0.000000

  -0.000218  0.000015  0.000000
  0.000015  -0.000006  0.000000
  0.000000  0.000000  0.000000

  -0.000218  0.000016  0.000000
  0.000016  -0.000010  0.000000
  0.000000  0.000000  0.000000

  -0.000185  0.000010  0.000000
  0.000010  -0.000011  0.000000
  0.000000  0.000000  0.000000

  -0.000214  0.000016  0.000000
  0.000016  -0.000004  0.000000
  0.000000  0.000000  0.000000

  -0.000180  0.000007  0.000000
  0.000007  -0.000014  0.000000
  0.000000  0.000000  0.000000

  -0.000218  0.000009  0.000000
  0.000009  -0.000006  0.000000
  0.000000  0.000000  0.000000

  -0.000218  0.000012  0.000000
  0.000012  -0.000008  0.000000
  0.000000  0.000000  0.000000

  -0.000037  -0.000000  0.000000
  -0.000000  -0.000015  0.000000
  0.000000  0.000000  0.000000

  -0.000037  0.000002  0.000000
  0.000002  -0.000009  0.000000
  0.000000  0.000000  0.000000

  -0.000013  -0.000002  0.000000
  -0.000002  -0.000015  0.000000
  0.000000  0.000000  0.000000

  -0.000013  0.000001  0.000000
  0.000001  -0.000008  0.000000
  0.000000  0.000000  0.000000

  -0.000036  0.000002  0.000000
  0.000002  -0.000007  0.000000
  0.000000  0.000000  0.000000

  -0.000082  0.000002  0.000000
  0.000002  -0.000010  0.000000
  0.000000  0.000000  0.000000

  -0.000013  -0.000001  0.000000
  -0.000001  -0.000014  0.000000
  0.000000  0.000000  0.000000

  -0.000036  -0.000001  0.000000
  -0.000001  -0.000015  0.000000
  0.000000  0.000000  0.000000

  -0.000058  0.000004  0.000000
  0.000004  -0.000007  0.000000
  0.000000  0.000000  0.000000

  -0.000036  -0.000001  0.000000
  -0.000001  -0.000014  0.000000
  0.000000  0.000000  0.000000

  -0.000059  0.000001  0.000000
  0.000001  -0.000013  0.000000
  0.000000  0.000000  0.000000

  -0.000081  0.000006  0.000000
  0.000006  -0.000006  0.000000
  0.000000  0.000000  0.000000

  -0.000035  0.000002  0.000000
  0.000002  -0.000006  0.000000
  0.000000  0.000000  0.000000

  -0.000012  -0.000002  0.000000
  -0.000002  -0.000012  0.000000
  0.000000  0.000000  0.000000

  -0.000011  0.000001  0.000000
  0.000001  -0.000005  0.000000
  0.000000  0.000000  0.000000

  -0.000032  0.000002  0.000000
  0.000002  -0.000005  0.000000
  0.000000  0.000000  0.000000

  -0.000057  -0.000000  0.000000
  -0.000000  -0.000014  0.000000
  0.000000  0.000000  0.000000

  -0.000054  0.000006  0.000000
  0.000006  -0.000005  0.000000
  0.000000  0.000000  0.000000

  -0.000034  -0.000003  0.000000
  -0.000003  -0.000011  0.000000
  0.000000  0.000000  0.000000

  -0.000038  0.000008  0.000000
  0.000008  -0.000008  0.000000
  0.000000  0.000000  0.000000

  -0.000014  0.000003  0.000000
  0.000003  -0.000010  0.000000
  0.000000  0.000000  0.000000

  0.000012  -0.000004  0.000000
  -0.000004  -0.000011  0.000000
  0.000000  0.000000  0.000000

  0.000010  -0.000004  0.000000
  -0.000004  -0.000013  0.000000
  0.000000  0.000000  0.000000

  -0.000009  0.000000  0.000000
  0.000000  -0.000011  0.000000
  0.000000  0.000000  0.000000

  0.000013  -0.000001  0.000000
  -0.000001  -0.000005  0.000000
  0.000000  0.000000  0.000000

  -0.000009  0.000002  0.000000
  0.000002  -0.000003  0.000000
  0.000000  0.000000  0.000000

  -0.000013  0.000001  0.000000
  0.000001  -0.000006  0.000000
  0.000000  0.000000  0.000000

  0.000010  -0.000004  0.000000
  -0.000004  -0.000014  0.000000
  0.000000  0.000000  0.000000

  0.000010  -0.000002  0.000000
  -0.000002  -0.000007  0.000000
  0.000000  0.000000  0.000000

  0.000032  -0.000006  0.000000
  -0.000006  -0.000014  0.000000
  0.000000  0.000000  0.000000

  0.000009  -0.000001  0.000000
  -0.000001  -0.000008  0.000000
  0.000000  0.000000  0.000000

  -0.000217  0.000017  0.000000
  0.000017  -0.000006  0.000000
  0.000000  0.000000  0.000000

  -0.000107  0.000005  0.000000
  0.000005  -0.000015  0.000000
  0.000000  0.000000  0.000000

  0.000011  0.000000  0.000000
  0.000000  -0.000006  0.000000
  0.000000  0.000000  0.000000

  0.000114  -0.000014  0.000000
  -0.000014  -0.000012  0.000000
  0.000000  0.000000  0.000000

  -0.000032  -0.000003  0.000000
  -0.000003  -0.000004  0.000000
  0.000000  0.000000  0.000000

  -0.000012  -0.000005  0.000000
  -0.000005  -0.000000  0.000000
  0.000000  0.000000  0.000000

  0.000101  -0.000014  0.000000
  -0.000014  -0.000011  0.000000
  0.000000  0.000000  0.000000

  0.000056  -0.000009  0.000000
  -0.000009  -0.000013  0.000000
  0.000000  0.000000  0.000000

  0.000032  -0.000004  0.000000
  -0.000004  -0.000005  0.000000
  0.000000  0.000000  0.000000

  0.000032  -0.000005  0.000000
  -0.000005  -0.000013  0.000000
  0.000000  0.000000  0.000000

  -0.000216  0.000020  0.000000
  0.000020  -0.000005  0.000000
  0.000000  0.000000  0.000000

  -0.000000  0.000002  0.000000
  0.000002  0.000015  0.000000
  0.000000  0.000000  0.000000

  -0.000001  0.000004  0.000000
  0.000004  0.000016  0.000000
  0.000000  0.000000  0.000000

  -0.000001  0.000005  0.000000
  0.000005  0.000011  0.000000
  0.000000  0.000000  0.000000

  -0.000016  0.000002  0.000000
  0.000002  0.000016  0.000000
  0.000000  0.000000  0.000000

  0.000115  -0.000073  0.000000
  -0.000073  0.000046  0.000000
  0.000000  0.000000  0.000000

  0.000111  -0.000078  0.000000
  -0.000078  0.000043  0.000000
  0.000000  0.000000  0.000000

  0.000028  -0.000047  0.000000
  -0.000047  0.000077  0.000000
  0.000000  0.000000  0.000000

  0.000023  -0.000048  0.000000
  -0.000048  0.000078  0.000000
  0.000000  0.000000  0.000000

  -0.000034  0.000017  0.000000
  0.000017  -0.000014  0.000000
  0.000000  0.000000  0.000000

  -0.000029  0.000007  0.000000
  0.000007  -0.000008  0.000000
  0.000000  0.000000  0.000000

  0.000145  -0.000069  0.000000
  -0.000069  0.000033  0.000000
  0.000000  0.000000  0.000000

  0.000135  -0.000075  0.000000
  -0.000075  0.000032  0.000000
  0.000000  0.000000  0.000000

  0.000143  -0.000067  0.000000
  -0.000067  0.000026  0.000000
  0.000000  0.000000  0.000000

  0.000099  -0.000075  0.000000
  -0.000075  0.000056  0.000000
  0.000000  0.000000  0.000000

  0.000096  -0.000078  0.000000
  -0.000078  0.000052  0.000000
  0.000000  0.000000  0.000000

  0.000062  -0.000063  0.000000
  -0.000063  0.000042  0.000000
  0.000000  0.000000  0.000000

  -0.000000  0.000003  0.000000
  0.000003  0.000006  0.000000
  0.000000  0.000000  0.000000

  -0.000003  0.000007  0.000000
  0.000007  0.000005  0.000000
  0.000000  0.000000  0.000000

  -0.000001  0.000005  0.000000
  0.000005  0.000005  0.000000
  0.000000  0.000000  0.000000

  -0.000003  0.000006  0.000000
  0.000006  0.000004  0.000000
  0.000000  0.000000  0.000000

  -0.000016  0.000016  0.000000
  0.000016  -0.000013  0.000000
  0.000000  0.000000  0.000000

  0.000164  -0.000053  0.000000
  -0.000053  0.000017  0.000000
  0.000000  0.000000  0.000000

  0.000164  -0.000054  0.000000
  -0.000054  0.000010  0.000000
  0.000000  0.000000  0.000000

  0.000142  -0.000055  0.000000
  -0.000055  0.000018  0.000000
  0.000000  0.000000  0.000000

  0.000023  -0.000035  0.000000
  -0.000035  0.000018  0.000000
  0.000000  0.000000  0.000000

  0.000113  -0.000075  0.000000
  -0.000075  0.000049  0.000000
  0.000000  0.000000  0.000000

  0.000110  -0.000079  0.000000
  -0.000079  0.000045  0.000000
  0.000000  0.000000  0.000000

  0.000098  -0.000066  0.000000
  -0.000066  0.000035  0.000000
  0.000000  0.000000  0.000000

  0.000085  -0.000064  0.000000
  -0.000064  0.000042  0.000000
  0.000000  0.000000  0.000000

  0.000012  -0.000030  0.000000
  -0.000030  0.000071  0.000000
  0.000000  0.000000  0.000000

  -0.000005  -0.000005  0.000000
  -0.000005  0.000044  0.000000
  0.000000  0.000000  0.000000

  -0.000063  0.000050  0.000000
  0.000050  -0.000056  0.000000
  0.000000  0.000000  0.000000

  -0.000009  0.000016  0.000000
  0.000016  -0.000024  0.000000
  0.000000  0.000000  0.000000

  0.000133  -0.000071  0.000000
  -0.000071  0.000037  0.000000
  0.000000  0.000000  0.000000

  0.000130  -0.000075  0.000000
  -0.000075  0.000033  0.000000
  0.000000  0.000000  0.000000

  0.000120  -0.000065  0.000000
  -0.000065  0.000033  0.000000
  0.000000  0.000000  0.000000

  0.000132  -0.000075  0.000000
  -0.000075  0.000032  0.000000
  0.000000  0.000000  0.000000

  0.000120  -0.000063  0.000000
  -0.000063  0.000032  0.000000
  0.000000  0.000000  0.000000

  0.000117  -0.000069  0.000000
  -0.000069  0.000028  0.000000
  0.000000  0.000000  0.000000

  0.000135  -0.000074  0.000000
  -0.000074  0.000027  0.000000
  0.000000  0.000000  0.000000

  0.000116  -0.000068  0.000000
  -0.000068  0.000028  0.000000
  0.000000  0.000000  0.000000

  0.000101  -0.000057  0.000000
  -0.000057  0.000028  0.000000
  0.000000  0.000000  0.000000

  0.000100  -0.000060  0.000000
  -0.000060  0.000021  0.000000
  0.000000  0.000000  0.000000

  0.000104  -0.000060  0.000000
  -0.000060  0.000030  0.000000
  0.000000  0.000000  0.000000

  0.000109  -0.000057  0.000000
  -0.000057  0.000023  0.000000
  0.000000  0.000000  0.000000

  0.000151  -0.000006  0.000000
  -0.000006  -0.000008  0.000000
  0.000000  0.000000  0.000000

  -0.000042  0.000026  0.000000
  0.000026  -0.000023  0.000000
  0.000000  0.000000  0.000000

  -0.000011  -0.000007  0.000000
  -0.000007  0.000015  0.000000
  0.000000  0.000000  0.000000

  -0.000007  -0.000017  0.000000
  -0.000017  0.000020  0.000000
  0.000000  0.000000  0.000000

  -0.000006  -0.000015  0.000000
  -0.000015  0.000019  0.000000
  0.000000  0.000000  0.000000

  -0.000003  0.000014  0.000000
  0.000014  0.000001  0.000000
  0.000000  0.000000  0.000000

  0.000190  -0.000017  0.000000
  -0.000017  0.000004  0.000000
  0.000000  0.000000  0.000000

  -0.000026  0.000018  0.000000
  0.000018  -0.000009  0.000000
  0.000000  0.000000  0.000000

  -0.000005  -0.000017  0.000000
  -0.000017  0.000025  0.000000
  0.000000  0.000000  0.000000

  -0.000100  0.000078  0.000000
  0.000078  -0.000068  0.000000
  0.000000  0.000000  0.000000

  -0.000017  0.000006  0.000000
  0.000006  -0.000003  0.000000
  0.000000  0.000000  0.000000

  -0.000010  -0.000002  0.000000
  -0.000002  0.000033  0.000000
  0.000000  0.000000  0.000000

  -0.000002  -0.000017  0.000000
  -0.000017  0.000039  0.000000
  0.000000  0.000000  0.000000

  -0.000020  -0.000002  0.000000
  -0.000002  -0.000000  0.000000
  0.000000  0.000000  0.000000

  -0.000009  -0.000011  0.000000
  -0.000011  0.000018  0.000000
  0.000000  0.000000  0.000000

  0.000015  -0.000035  0.000000
  -0.000035  0.000068  0.000000
  0.000000  0.000000  0.000000

  -0.000003  -0.000008  0.000000
  -0.000008  0.000049  0.000000
  0.000000  0.000000  0.000000

  0.000049  -0.000010  0.000000
  -0.000010  -0.000004  0.000000
  0.000000  0.000000  0.000000

  0.000001  -0.000006  0.000000
  -0.000006  0.000041  0.000000
  0.000000  0.000000  0.000000

  -0.000014  -0.000003  0.000000
  -0.000003  0.000001  0.000000
  0.000000  0.000000  0.000000

  0.000022  -0.000040  0.000000
  -0.000040  0.000076  0.000000
  0.000000  0.000000  0.000000

  -0.000089  0.000076  0.000000
  0.000076  -0.000076  0.000000
  0.000000  0.000000  0.000000

  -0.000005  0.000014  0.000000
  0.000014  -0.000010  0.000000
  0.000000  0.000000  0.000000

  -0.000006  -0.000015  0.000000
  -0.000015  -0.000000  0.000000
  0.000000  0.000000  0.000000

  -0.000001  0.000012  0.000000
  0.000012  -0.000002  0.000000
  0.000000  0.000000  0.000000

  -0.000096  0.000076  0.000000
  0.000076  -0.000072  0.000000
  0.000000  0.000000  0.000000

  -0.000115  0.000016  0.000000
  0.000016  -0.000013  0.000000
  0.000000  0.000000  0.000000

  -0.000010  0.000021  0.000000
  0.000021  -0.000053  0.000000
  0.000000  0.000000  0.000000

  -0.000004  -0.000004  0.000000
  -0.000004  0.000037  0.000000
  0.000000  0.000000  0.000000

  -0.000127  0.000068  0.000000
  0.000068  -0.000053  0.000000
  0.000000  0.000000  0.000000

  0.000108  -0.000074  0.000000
  -0.000074  0.000054  0.000000
  0.000000  0.000000  0.000000

  -0.000009  -0.000002  0.000000
  -0.000002  0.000036  0.000000
  0.000000  0.000000  0.000000

  0.000042  -0.000056  0.000000
  -0.000056  0.000078  0.000000
  0.000000  0.000000  0.000000

  -0.000005  0.000016  0.000000
  0.000016  -0.000002  0.000000
  0.000000  0.000000  0.000000

  -0.000005  0.000015  0.000000
  0.000015  -0.000003  0.000000
  0.000000  0.000000  0.000000

  0.000084  -0.000072  0.000000
  -0.000072  0.000065  0.000000
  0.000000  0.000000  0.000000

  0.000012  -0.000030  0.000000
  -0.000030  0.000071  0.000000
  0.000000  0.000000  0.000000

  0.000075  -0.000024  0.000000
  -0.000024  -0.000001  0.000000
  0.000000  0.000000  0.000000

  -0.000017  0.000001  0.000000
  0.000001  0.000005  0.000000
  0.000000  0.000000  0.000000

  -0.000068  0.000009  0.000000
  0.000009  -0.000012  0.000000
  0.000000  0.000000  0.000000

  -0.000047  -0.000001  0.000000
  -0.000001  -0.000020  0.000000
  0.000000  0.000000  0.000000

  -0.000006  0.000013  0.000000
  0.000013  0.000001  0.000000
  0.000000  0.000000  0.000000

  0.000055  -0.000062  0.000000
  -0.000062  0.000071  0.000000
  0.000000  0.000000  0.000000

  0.000084  -0.000072  0.000000
  -0.000072  0.000062  0.000000
  0.000000  0.000000  0.000000

  -0.000007  -0.000001  0.000000
  -0.000001  0.000029  0.000000
  0.000000  0.000000  0.000000

  0.000017  -0.000036  0.000000
  -0.000036  0.000068  0.000000
  0.000000  0.000000  0.000000

  0.000014  -0.000039  0.000000
  -0.000039  0.000076  0.000000
  0.000000  0.000000  0.000000

  -0.000087  0.000049  0.000000
  0.000049  -0.000043  0.000000
  0.000000  0.000000  0.000000

  -0.000004  0.000011  0.000000
  0.000011  -0.000015  0.000000
  0.000000  0.000000  0.000000

  -0.000095  0.000012  0.000000
  0.000012  -0.000011  0.000000
  0.000000  0.000000  0.000000

  0.000003  -0.000011  0.000000
  -0.000011  0.000052  0.000000
  0.000000  0.000000  0.000000

  -0.000029  0.000008  0.000000
  0.000008  -0.000013  0.000000
  0.000000  0.000000  0.000000

  0.000157  -0.000062  0.000000
  -0.000062  0.000024  0.000000
  0.000000  0.000000  0.000000

  -0.000000  -0.000011  0.000000
  -0.000011  0.000047  0.000000
  0.000000  0.000000  0.000000

  -0.000005  0.000016  0.000000
  0.000016  -0.000007  0.000000
  0.000000  0.000000  0.000000

  -0.000013  0.000025  0.000000
  0.000025  -0.000060  0.000000
  0.000000  0.000000  0.000000

  0.000020  -0.000039  0.000000
  -0.000039  0.000041  0.000000
  0.000000  0.000000  0.000000

  0.000067  -0.000053  0.000000
  -0.000053  0.000037  0.000000
  0.000000  0.000000  0.000000

  0.000108  -0.000027  0.000000
  -0.000027  -0.000009  0.000000
  0.000000  0.000000  0.000000

  0.000044  -0.000015  0.000000
  -0.000015  -0.000017  0.000000
  0.000000  0.000000  0.000000

  0.000030  -0.000017  0.000000
  -0.000017  -0.000005  0.000000
  0.000000  0.000000  0.000000

  0.000044  -0.000010  0.000000
  -0.000010  -0.000010  0.000000
  0.000000  0.000000  0.000000

  -0.000011  0.000003  0.000000
  0.000003  0.000024  0.000000
  0.000000  0.000000  0.000000

  -0.000009  0.000004  0.000000
  0.000004  0.000019  0.000000
  0.000000  0.000000  0.000000

  -0.000011  0.000002  0.000000
  0.000002  0.000025  0.000000
  0.000000  0.000000  0.000000

  -0.000008  0.000002  0.000000
  0.000002  0.000025  0.000000
  0.000000  0.000000  0.000000

  -0.000036  -0.000001  0.000000
  -0.000001  -0.000009  0.000000
  0.000000  0.000000  0.000000

  0.000169  -0.000050  0.000000
  -0.000050  0.000017  0.000000
  0.000000  0.000000  0.000000

  -0.000100  0.000047  0.000000
  0.000047  -0.000037  0.000000
  0.000000  0.000000  0.000000

  -0.000051  0.000036  0.000000
  0.000036  -0.000034  0.000000
  0.000000  0.000000  0.000000

  0.000188  -0.000021  0.000000
  -0.000021  0.000005  0.000000
  0.000000  0.000000  0.000000

  -0.000027  0.000009  0.000000
  0.000009  -0.000005  0.000000
  0.000000  0.000000  0.000000

  0.000000  0.000002  0.000000
  0.000002  0.000011  0.000000
  0.000000  0.000000  0.000000

  0.000056  -0.000046  0.000000
  -0.000046  0.000031  0.000000
  0.000000  0.000000  0.000000

  0.000000  -0.000003  0.000000
  -0.000003  0.000037  0.000000
  0.000000  0.000000  0.000000

  0.000125  -0.000072  0.000000
  -0.000072  0.000044  0.000000
  0.000000  0.000000  0.000000

  -0.000021  0.000022  0.000000
  0.000022  -0.000029  0.000000
  0.000000  0.000000  0.000000

  -0.000019  0.000022  0.000000
  0.000022  -0.000029  0.000000
  0.000000  0.000000  0.000000

  -0.000021  0.000019  0.000000
  0.000019  -0.000020  0.000000
  0.000000  0.000000  0.000000

  -0.000018  0.000020  0.000000
  0.000020  -0.000020  0.000000
  0.000000  0.000000  0.000000

  -0.000020  0.000016  0.000000
  0.000016  -0.000013  0.000000
  0.000000  0.000000  0.000000

  -0.000020  0.000016  0.000000
  0.000016  -0.000011  0.000000
  0.000000  0.000000  0.000000

  -0.000017  0.000020  0.000000
  0.000020  -0.000021  0.000000
  0.000000  0.000000  0.000000

  -0.000017  0.000016  0.000000
  0.000016  -0.000012  0.000000
  0.000000  0.000000  0.000000

  -0.000019  0.000019  0.000000
  0.000019  -0.000019  0.000000
  0.000000  0.000000  0.000000

  -0.000019  0.000017  0.000000
  0.000017  -0.000014  0.000000
  0.000000  0.000000  0.000000

  -0.000017  0.000020  0.000000
  0.000020  -0.000022  0.000000
  0.000000  0.000000  0.000000

  -0.000021  0.000015  0.000000
  0.000015  -0.000010  0.000000
  0.000000  0.000000  0.000000

  -0.000021  0.000018  0.000000
  0.000018  -0.000019  0.000000
  0.000000  0.000000  0.000000

  -0.000019  0.000023  0.000000
  0.000023  -0.000028  0.000000
  0.000000  0.000000  0.000000

  -0.000022  0.000022  0.000000
  0.000022  -0.000028  0.000000
  0.000000  0.000000  0.000000

  -0.000020  0.000025  0.000000
  0.000025  -0.000037  0.000000
  0.000000  0.000000  0.000000

  -0.000023  0.000023  0.000000
  0.000023  -0.000027  0.000000
  0.000000  0.000000  0.000000

  -0.000023  0.000026  0.000000
  0.000026  -0.000037  0.000000
  0.000000  0.000000  0.000000

  -0.000021  0.000029  0.000000
  0.000029  -0.000045  0.000000
  0.000000  0.000000  0.000000

  -0.000019  0.000022  0.000000
  0.000022  -0.000027  0.000000
  0.000000  0.000000  0.000000

  -0.000022  0.000019  0.000000
  0.000019  -0.000017  0.000000
  0.000000  0.000000  0.000000

  -0.000019  0.000019  0.000000
  0.000019  -0.000018  0.000000
  0.000000  0.000000  0.000000

  -0.000021  0.000014  0.000000
  0.000014  -0.000010  0.000000
  0.000000  0.000000  0.000000

  -0.000020  0.000022  0.000000
  0.000022  -0.000025  0.000000
  0.000000  0.000000  0.000000

  -0.000017  0.000014  0.000000
  0.000014  -0.000010  0.000000
  0.000000  0.000000  0.000000

  -0.000017  0.000015  0.000000
  0.000015  -0.000014  0.000000
  0.000000  0.000000  0.000000

  -0.000021  0.000017  0.000000
  0.000017  -0.000008  0.000000
  0.000000  0.000000  0.000000

  -0.000019  0.000010  0.000000
  0.000010  -0.000001  0.000000
  0.000000  0.000000  0.000000

  -0.000023  0.000018  0.000000
  0.000018  -0.000015  0.000000
  0.000000  0.000000  0.000000

  -0.000023  0.000021  0.000000
  0.000021  -0.000026  0.000000
  0.000000  0.000000  0.000000

  -0.000019  0.000012  0.000000
  0.000012  -0.000001  0.000000
  0.000000  0.000000  0.000000

  -0.000016  0.000013  0.000000
  0.000013  -0.000001  0.000000
  0.000000  0.000000  0.000000

  -0.000021  0.000026  0.000000
  0.000026  -0.000036  0.000000
  0.000000  0.000000  0.000000

  -0.000024  0.000026  0.000000
  0.000026  -0.000035  0.000000
  0.000000  0.000000  0.000000

  -0.000021  0.000027  0.000000
  0.000027  -0.000043  0.000000
  0.000000  0.000000  0.000000

  -0.000024  0.000027  0.000000
  0.000027  -0.000034  0.000000
  0.000000  0.000000  0.000000

  -0.000026  0.000030  0.000000
  0.000030  -0.000042  0.000000
  0.000000  0.000000  0.000000

  -0.000024  0.000029  0.000000
  0.000029  -0.000045  0.000000
  0.000000  0.000000  0.000000

  -0.000023  0.000031  0.000000
  0.000031  -0.000051  0.000000
  0.000000  0.000000  0.000000

  -0.000022  0.000033  0.000000
  0.000033  -0.000054  0.000000
  0.000000  0.000000  0.000000

  -0.000018  0.000008  0.000000
  0.000008  0.000007  0.000000
  0.000000  0.000000  0.000000

  -0.000018  0.000007  0.000000
  0.000007  0.000006  0.000000
  0.000000  0.000000  0.000000

  -0.000021  0.000032  0.000000
  0.000032  -0.000056  0.000000
  0.000000  0.000000  0.000000

  -0.000028  0.000034  0.000000
  0.000034  -0.000050  0.000000
  0.000000  0.000000  0.000000

  -0.000017  0.000015  0.000000
  0.000015  -0.000011  0.000000
  0.000000  0.000000  0.000000

  -0.000027  0.000029  0.000000
  0.000029  -0.000040  0.000000
  0.000000  0.000000  0.000000

  -0.000001  0.000015  0.000000
  0.000015  -0.000000  0.000000
  0.000000  0.000000  0.000000

  -0.000006  -0.000011  0.000000
  -0.000011  0.000008  0.000000
  0.000000  0.000000  0.000000

  -0.000016  0.000017  0.000000
  0.000017  -0.000014  0.000000
  0.000000  0.000000  0.000000

  0.000007  -0.000020  0.000000
  -0.000020  0.000062  0.000000
  0.000000  0.000000  0.000000

  -0.000014  0.000001  0.000000
  0.000001  0.000019  0.000000
  0.000000  0.000000  0.000000

  0.000138  -0.000069  0.000000
  -0.000069  0.000037  0.000000
  0.000000  0.000000  0.000000

  -0.000047  0.000052  0.000000
  0.000052  -0.000075  0.000000
  0.000000  0.000000  0.000000

  -0.000001  0.000004  0.000000
  0.000004  0.000003  0.000000
  0.000000  0.000000  0.000000

  -0.000006  0.000008  0.000000
  0.000008  0.000003  0.000000
  0.000000  0.000000  0.000000

  0.000162  -0.000055  0.000000
  -0.000055  0.000020  0.000000
  0.000000  0.000000  0.000000

  0.000145  -0.000068  0.000000
  -0.000068  0.000034  0.000000
  0.000000  0.000000  0.000000

  -0.000003  -0.000008  0.000000
  -0.000008  -0.000018  0.000000
  0.000000  0.000000  0.000000

  -0.000022  -0.000000  0.000000
  -0.000000  -0.000019  0.000000
  0.000000  0.000000  0.000000

  0.000066  -0.000054  0.000000
  -0.000054  0.000022  0.000000
  0.000000  0.000000  0.000000

  0.000013  -0.000030  0.000000
  -0.000030  0.000040  0.000000
  0.000000  0.000000  0.000000

  0.000102  -0.000040  0.000000
  -0.000040  -0.000001  0.000000
  0.000000  0.000000  0.000000

  0.000102  -0.000063  0.000000
  -0.000063  0.000024  0.000000
  0.000000  0.000000  0.000000

  0.000017  -0.000040  0.000000
  -0.000040  0.000046  0.000000
  0.000000  0.000000  0.000000

  0.000084  -0.000031  0.000000
  -0.000031  0.000004  0.000000
  0.000000  0.000000  0.000000

  0.000082  -0.000051  0.000000
  -0.000051  0.000025  0.000000
  0.000000  0.000000  0.000000

  0.000082  -0.000035  0.000000
  -0.000035  -0.000003  0.000000
  0.000000  0.000000  0.000000

  0.000100  -0.000040  0.000000
  -0.000040  -0.000000  0.000000
  0.000000  0.000000  0.000000

  0.000082  -0.000032  0.000000
  -0.000032  0.000004  0.000000
  0.000000  0.000000  0.000000

  0.000102  -0.000036  0.000000
  -0.000036  0.000006  0.000000
  0.000000  0.000000  0.000000

  0.000080  -0.000035  0.000000
  -0.000035  -0.000003  0.000000
  0.000000  0.000000  0.000000

  0.000097  -0.000041  0.000000
  -0.000041  0.000001  0.000000
  0.000000  0.000000  0.000000

  0.000117  -0.000045  0.000000
  -0.000045  0.000003  0.000000
  0.000000  0.000000  0.000000

  0.000064  -0.000026  0.000000
  -0.000026  0.000001  0.000000
  0.000000  0.000000  0.000000

  0.000080  -0.000032  0.000000
  -0.000032  0.000005  0.000000
  0.000000  0.000000  0.000000

  0.000099  -0.000037  0.000000
  -0.000037  0.000007  0.000000
  0.000000  0.000000  0.000000

  0.000118  -0.000042  0.000000
  -0.000042  0.000010  0.000000
  0.000000  0.000000  0.000000

  0.000078  -0.000035  0.000000
  -0.000035  -0.000002  0.000000
  0.000000  0.000000  0.000000

  0.000094  -0.000042  0.000000
  -0.000042  0.000001  0.000000
  0.000000  0.000000  0.000000

  0.000078  -0.000031  0.000000
  -0.000031  0.000005  0.000000
  0.000000  0.000000  0.000000

  0.000063  -0.000016  0.000000
  -0.000016  -0.000005  0.000000
  0.000000  0.000000  0.000000

  -0.000074  0.000005  0.000000
  0.000005  -0.000018  0.000000
  0.000000  0.000000  0.000000

  0.000104  -0.000036  0.000000
  -0.000036  0.000006  0.000000
  0.000000  0.000000  0.000000

  0.000120  -0.000045  0.000000
  -0.000045  0.000002  0.000000
  0.000000  0.000000  0.000000

  0.000122  -0.000045  0.000000
  -0.000045  0.000002  0.000000
  0.000000  0.000000  0.000000

  0.000121  -0.000043  0.000000
  -0.000043  0.000010  0.000000
  0.000000  0.000000  0.000000

  0.000124  -0.000040  0.000000
  -0.000040  0.000008  0.000000
  0.000000  0.000000  0.000000

  0.000106  -0.000035  0.000000
  -0.000035  0.000005  0.000000
  0.000000  0.000000  0.000000

  0.000123  -0.000043  0.000000
  -0.000043  0.000001  0.000000
  0.000000  0.000000  0.000000

  0.000104  -0.000039  0.000000
  -0.000039  -0.000001  0.000000
  0.000000  0.000000  0.000000

  0.000127  -0.000036  0.000000
  -0.000036  0.000006  0.000000
  0.000000  0.000000  0.000000

  0.000146  -0.000045  0.000000
  -0.000045  0.000004  0.000000
  0.000000  0.000000  0.000000

  0.000147  -0.000050  0.000000
  -0.000050  0.000013  0.000000
  0.000000  0.000000  0.000000

  0.000147  -0.000048  0.000000
  -0.000048  0.000002  0.000000
  0.000000  0.000000  0.000000

  0.000130  -0.000039  0.000000
  -0.000039  0.000005  0.000000
  0.000000  0.000000  0.000000

  0.000168  -0.000056  0.000000
  -0.000056  0.000009  0.000000
  0.000000  0.000000  0.000000

  0.000194  -0.000007  0.000000
  -0.000007  -0.000007  0.000000
  0.000000  0.000000  0.000000

  0.000035  -0.000025  0.000000
  -0.000025  -0.000006  0.000000
  0.000000  0.000000  0.000000

  0.000018  -0.000014  0.000000
  -0.000014  -0.000003  0.000000
  0.000000  0.000000  0.000000

  -0.000038  0.000043  0.000000
  0.000043  -0.000056  0.000000
  0.000000  0.000000  0.000000

  -0.000033  0.000038  0.000000
  0.000038  -0.000059  0.000000
  0.000000  0.000000  0.000000

  -0.000033  0.000042  0.000000
  0.000042  -0.000066  0.000000
  0.000000  0.000000  0.000000

  -0.000038  0.000039  0.000000
  0.000039  -0.000048  0.000000
  0.000000  0.000000  0.000000

  -0.000033  0.000035  0.000000
  0.000035  -0.000052  0.000000
  0.000000  0.000000  0.000000

  -0.000037  0.000036  0.000000
  0.000036  -0.000042  0.000000
  0.000000  0.000000  0.000000

  -0.000040  0.000043  0.000000
  0.000043  -0.000053  0.000000
  0.000000  0.000000  0.000000

  -0.000035  0.000038  0.000000
  0.000038  -0.000057  0.000000
  0.000000  0.000000  0.000000

  -0.000035  0.000042  0.000000
  0.000042  -0.000065  0.000000
  0.000000  0.000000  0.000000

  -0.000040  0.000046  0.000000
  0.000046  -0.000061  0.000000
  0.000000  0.000000  0.000000

  -0.000036  0.000045  0.000000
  0.000045  -0.000072  0.000000
  0.000000  0.000000  0.000000

  -0.000043  0.000053  0.000000
  0.000053  -0.000074  0.000000
  0.000000  0.000000  0.000000

  -0.000041  0.000050  0.000000
  0.000050  -0.000068  0.000000
  0.000000  0.000000  0.000000

  -0.000034  0.000049  0.000000
  0.000049  -0.000082  0.000000
  0.000000  0.000000  0.000000

  -0.000038  0.000048  0.000000
  0.000048  -0.000078  0.000000
  0.000000  0.000000  0.000000

  -0.000036  0.000052  0.000000
  0.000052  -0.000086  0.000000
  0.000000  0.000000  0.000000

  -0.000037  0.000046  0.000000
  0.000046  -0.000063  0.000000
  0.000000  0.000000  0.000000

  -0.000042  0.000050  0.000000
  0.000050  -0.000066  0.000000
  0.000000  0.000000  0.000000

  -0.000037  0.000046  0.000000
  0.000046  -0.000070  0.000000
  0.000000  0.000000  0.000000

  -0.000042  0.000047  0.000000
  0.000047  -0.000059  0.000000
  0.000000  0.000000  0.000000

  -0.000037  0.000042  0.000000
  0.000042  -0.000062  0.000000
  0.000000  0.000000  0.000000

  -0.000045  0.000054  0.000000
  0.000054  -0.000071  0.000000
  0.000000  0.000000  0.000000

  -0.000043  0.000043  0.000000
  0.000043  -0.000050  0.000000
  0.000000  0.000000  0.000000

  -0.000044  0.000050  0.000000
  0.000050  -0.000064  0.000000
  0.000000  0.000000  0.000000

  -0.000040  0.000049  0.000000
  0.000049  -0.000075  0.000000
  0.000000  0.000000  0.000000

  -0.000048  0.000056  0.000000
  0.000056  -0.000076  0.000000
  0.000000  0.000000  0.000000

  -0.000034  0.000034  0.000000
  0.000034  -0.000049  0.000000
  0.000000  0.000000  0.000000

  -0.000038  0.000044  0.000000
  0.000044  -0.000067  0.000000
  0.000000  0.000000  0.000000

  -0.000042  0.000053  0.000000
  0.000053  -0.000081  0.000000
  0.000000  0.000000  0.000000

  -0.000041  0.000053  0.000000
  0.000053  -0.000083  0.000000
  0.000000  0.000000  0.000000

  -0.000036  0.000034  0.000000
  0.000034  -0.000050  0.000000
  0.000000  0.000000  0.000000

  -0.000041  0.000060  0.000000
  0.000060  -0.000092  0.000000
  0.000000  0.000000  0.000000

  -0.000045  0.000057  0.000000
  0.000057  -0.000080  0.000000
  0.000000  0.000000  0.000000

  -0.000033  0.000044  0.000000
  0.000044  -0.000075  0.000000
  0.000000  0.000000  0.000000

  -0.000038  0.000034  0.000000
  0.000034  -0.000038  0.000000
  0.000000  0.000000  0.000000

  -0.000038  0.000049  0.000000
  0.000049  -0.000076  0.000000
  0.000000  0.000000  0.000000

  -0.000037  0.000048  0.000000
  0.000048  -0.000070  0.000000
  0.000000  0.000000  0.000000

  -0.000034  0.000047  0.000000
  0.000047  -0.000078  0.000000
  0.000000  0.000000  0.000000

  -0.000031  0.000041  0.000000
  0.000041  -0.000069  0.000000
  0.000000  0.000000  0.000000

  -0.000034  0.000044  0.000000
  0.000044  -0.000064  0.000000
  0.000000  0.000000  0.000000

  -0.000035  0.000042  0.000000
  0.000042  -0.000057  0.000000
  0.000000  0.000000  0.000000

  -0.000030  0.000042  0.000000
  0.000042  -0.000076  0.000000
  0.000000  0.000000  0.000000

  -0.000029  0.000037  0.000000
  0.000037  -0.000063  0.000000
  0.000000  0.000000  0.000000

  -0.000036  0.000052  0.000000
  0.000052  -0.000079  0.000000
  0.000000  0.000000  0.000000

  -0.000035  0.000046  0.000000
  0.000046  -0.000071  0.000000
  0.000000  0.000000  0.000000

  -0.000033  0.000041  0.000000
  0.000041  -0.000058  0.000000
  0.000000  0.000000  0.000000

  -0.000030  0.000045  0.000000
  0.000045  -0.000082  0.000000
  0.000000  0.000000  0.000000

  -0.000029  0.000040  0.000000
  0.000040  -0.000069  0.000000
  0.000000  0.000000  0.000000

  -0.000032  0.000043  0.000000
  0.000043  -0.000065  0.000000
  0.000000  0.000000  0.000000

  -0.000028  0.000041  0.000000
  0.000041  -0.000077  0.000000
  0.000000  0.000000  0.000000

  -0.000027  0.000036  0.000000
  0.000036  -0.000064  0.000000
  0.000000  0.000000  0.000000

  -0.000033  0.000048  0.000000
  0.000048  -0.000078  0.000000
  0.000000  0.000000  0.000000

  -0.000032  0.000045  0.000000
  0.000045  -0.000071  0.000000
  0.000000  0.000000  0.000000

  -0.000031  0.000040  0.000000
  0.000040  -0.000059  0.000000
  0.000000  0.000000  0.000000

  -0.000026  0.000044  0.000000
  0.000044  -0.000084  0.000000
  0.000000  0.000000  0.000000

  -0.000026  0.000039  0.000000
  0.000039  -0.000070  0.000000
  0.000000  0.000000  0.000000

  -0.000026  0.000032  0.000000
  0.000032  -0.000058  0.000000
  0.000000  0.000000  0.000000

  -0.000029  0.000041  0.000000
  0.000041  -0.000063  0.000000
  0.000000  0.000000  0.000000

  -0.000029  0.000035  0.000000
  0.000035  -0.000048  0.000000
  0.000000  0.000000  0.000000

  -0.000030  0.000034  0.000000
  0.000034  -0.000046  0.000000
  0.000000  0.000000  0.000000

  -0.000025  0.000040  0.000000
  0.000040  -0.000076  0.000000
  0.000000  0.000000  0.000000

  -0.000026  0.000033  0.000000
  0.000033  -0.000061  0.000000
  0.000000  0.000000  0.000000

  -0.000025  0.000028  0.000000
  0.000028  -0.000045  0.000000
  0.000000  0.000000  0.000000

  -0.000026  0.000031  0.000000
  0.000031  -0.000051  0.000000
  0.000000  0.000000  0.000000

  -0.000030  0.000045  0.000000
  0.000045  -0.000077  0.000000
  0.000000  0.000000  0.000000

  -0.000026  0.000048  0.000000
  0.000048  -0.000091  0.000000
  0.000000  0.000000  0.000000

  -0.000026  0.000041  0.000000
  0.000041  -0.000080  0.000000
  0.000000  0.000000  0.000000

  -0.000026  0.000047  0.000000
  0.000047  -0.000088  0.000000
  0.000000  0.000000  0.000000

  -0.000023  0.000038  0.000000
  0.000038  -0.000078  0.000000
  0.000000  0.000000  0.000000

  -0.000029  0.000045  0.000000
  0.000045  -0.000075  0.000000
  0.000000  0.000000  0.000000

  -0.000024  0.000045  0.000000
  0.000045  -0.000086  0.000000
  0.000000  0.000000  0.000000

  -0.000028  0.000042  0.000000
  0.000042  -0.000072  0.000000
  0.000000  0.000000  0.000000

  -0.000022  0.000038  0.000000
  0.000038  -0.000078  0.000000
  0.000000  0.000000  0.000000

  -0.000023  0.000043  0.000000
  0.000043  -0.000084  0.000000
  0.000000  0.000000  0.000000

  -0.000024  0.000041  0.000000
  0.000041  -0.000074  0.000000
  0.000000  0.000000  0.000000

  -0.000023  0.000033  0.000000
  0.000033  -0.000063  0.000000
  0.000000  0.000000  0.000000

  -0.000024  0.000034  0.000000
  0.000034  -0.000065  0.000000
  0.000000  0.000000  0.000000

  -0.000028  0.000030  0.000000
  0.000030  -0.000036  0.000000
  0.000000  0.000000  0.000000

  -0.000029  0.000029  0.000000
  0.000029  -0.000035  0.000000
  0.000000  0.000000  0.000000

  -0.000024  0.000027  0.000000
  0.000027  -0.000041  0.000000
  0.000000  0.000000  0.000000

  -0.000028  0.000028  0.000000
  0.000028  -0.000031  0.000000
  0.000000  0.000000  0.000000

  -0.000030  0.000032  0.000000
  0.000032  -0.000041  0.000000
  0.000000  0.000000  0.000000

  -0.000026  0.000029  0.000000
  0.000029  -0.000046  0.000000
  0.000000  0.000000  0.000000

  -0.000030  0.000031  0.000000
  0.000031  -0.000036  0.000000
  0.000000  0.000000  0.000000

  -0.000032  0.000035  0.000000
  0.000035  -0.000046  0.000000
  0.000000  0.000000  0.000000

  -0.000027  0.000032  0.000000
  0.000032  -0.000051  0.000000
  0.000000  0.000000  0.000000

  -0.000032  0.000033  0.000000
  0.000033  -0.000041  0.000000
  0.000000  0.000000  0.000000

  -0.000033  0.000038  0.000000
  0.000038  -0.000052  0.000000
  0.000000  0.000000  0.000000

  -0.000029  0.000035  0.000000
  0.000035  -0.000056  0.000000
  0.000000  0.000000  0.000000

  -0.000034  0.000036  0.000000
  0.000036  -0.000046  0.000000
  0.000000  0.000000  0.000000

  -0.000024  0.000024  0.000000
  0.000024  -0.000034  0.000000
  0.000000  0.000000  0.000000

  -0.000026  0.000026  0.000000
  0.000026  -0.000038  0.000000
  0.000000  0.000000  0.000000

  -0.000029  0.000028  0.000000
  0.000028  -0.000030  0.000000
  0.000000  0.000000  0.000000

  -0.000027  0.000034  0.000000
  0.000034  -0.000057  0.000000
  0.000000  0.000000  0.000000

  -0.000031  0.000037  0.000000
  0.000037  -0.000053  0.000000
  0.000000  0.000000  0.000000

  -0.000039  0.000039  0.000000
  0.000039  -0.000046  0.000000
  0.000000  0.000000  0.000000

  -0.000032  0.000031  0.000000
  0.000031  -0.000044  0.000000
  0.000000  0.000000  0.000000

  -0.000051  0.000063  0.000000
  0.000063  -0.000083  0.000000
  0.000000  0.000000  0.000000

  0.000119  -0.000078  0.000000
  -0.000078  0.000039  0.000000
  0.000000  0.000000  0.000000

  0.000114  -0.000065  0.000000
  -0.000065  0.000039  0.000000
  0.000000  0.000000  0.000000

  -0.000048  0.000053  0.000000
  0.000053  -0.000069  0.000000
  0.000000  0.000000  0.000000

  -0.000043  0.000050  0.000000
  0.000050  -0.000073  0.000000
  0.000000  0.000000  0.000000

  -0.000051  0.000059  0.000000
  0.000059  -0.000073  0.000000
  0.000000  0.000000  0.000000

  0.000024  -0.000023  0.000000
  -0.000023  0.000007  0.000000
  0.000000  0.000000  0.000000

  0.000030  -0.000037  0.000000
  -0.000037  0.000014  0.000000
  0.000000  0.000000  0.000000

  0.000015  -0.000027  0.000000
  -0.000027  0.000009  0.000000
  0.000000  0.000000  0.000000

  0.000036  -0.000032  0.000000
  -0.000032  0.000017  0.000000
  0.000000  0.000000  0.000000

  0.000028  -0.000026  0.000000
  -0.000026  0.000008  0.000000
  0.000000  0.000000  0.000000

  0.000011  -0.000017  0.000000
  -0.000017  0.000003  0.000000
  0.000000  0.000000  0.000000

  0.000035  -0.000040  0.000000
  -0.000040  0.000016  0.000000
  0.000000  0.000000  0.000000

  0.000018  -0.000030  0.000000
  -0.000030  0.000010  0.000000
  0.000000  0.000000  0.000000

  0.000001  -0.000022  0.000000
  -0.000022  0.000004  0.000000
  0.000000  0.000000  0.000000

  0.000050  -0.000035  0.000000
  -0.000035  0.000009  0.000000
  0.000000  0.000000  0.000000

  0.000016  -0.000019  0.000000
  -0.000019  0.000004  0.000000
  0.000000  0.000000  0.000000

  -0.000000  -0.000010  0.000000
  -0.000010  -0.000002  0.000000
  0.000000  0.000000  0.000000

  -0.000006  -0.000009  0.000000
  -0.000009  0.000005  0.000000
  0.000000  0.000000  0.000000

  0.000007  -0.000023  0.000000
  -0.000023  0.000005  0.000000
  0.000000  0.000000  0.000000

  -0.000010  -0.000014  0.000000
  -0.000014  -0.000001  0.000000
  0.000000  0.000000  0.000000

  0.000005  -0.000012  0.000000
  -0.000012  -0.000001  0.000000
  0.000000  0.000000  0.000000

  -0.000011  -0.000004  0.000000
  -0.000004  -0.000006  0.000000
  0.000000  0.000000  0.000000

  0.000011  -0.000025  0.000000
  -0.000025  0.000006  0.000000
  0.000000  0.000000  0.000000

  -0.000005  -0.000017  0.000000
  -0.000017  -0.000001  0.000000
  0.000000  0.000000  0.000000

  0.000021  -0.000021  0.000000
  -0.000021  0.000005  0.000000
  0.000000  0.000000  0.000000

  -0.000006  -0.000005  0.000000
  -0.000005  -0.000007  0.000000
  0.000000  0.000000  0.000000

  0.000023  -0.000033  0.000000
  -0.000033  0.000011  0.000000
  0.000000  0.000000  0.000000

  0.000028  -0.000035  0.000000
  -0.000035  0.000013  0.000000
  0.000000  0.000000  0.000000

  0.000001  -0.000019  0.000000
  -0.000019  -0.000000  0.000000
  0.000000  0.000000  0.000000

  -0.000011  -0.000009  0.000000
  -0.000009  -0.000001  0.000000
  0.000000  0.000000  0.000000

  -0.000010  -0.000008  0.000000
  -0.000008  -0.000009  0.000000
  0.000000  0.000000  0.000000

  -0.000028  0.000001  0.000000
  0.000001  -0.000006  0.000000
  0.000000  0.000000  0.000000

  -0.000021  -0.000009  0.000000
  -0.000009  -0.000001  0.000000
  0.000000  0.000000  0.000000

  -0.000027  0.000002  0.000000
  0.000002  -0.000014  0.000000
  0.000000  0.000000  0.000000

  0.000003  -0.000016  0.000000
  -0.000016  -0.000004  0.000000
  0.000000  0.000000  0.000000

  -0.000046  0.000010  0.000000
  0.000010  -0.000011  0.000000
  0.000000  0.000000  0.000000

  -0.000043  0.000008  0.000000
  0.000008  -0.000009  0.000000
  0.000000  0.000000  0.000000

  -0.000030  0.000002  0.000000
  0.000002  -0.000015  0.000000
  0.000000  0.000000  0.000000

  -0.000044  0.000011  0.000000
  0.000011  -0.000020  0.000000
  0.000000  0.000000  0.000000

  -0.000041  0.000010  0.000000
  0.000010  -0.000019  0.000000
  0.000000  0.000000  0.000000

  -0.000021  -0.000001  0.000000
  -0.000001  -0.000013  0.000000
  0.000000  0.000000  0.000000

  0.000033  -0.000028  0.000000
  -0.000028  0.000010  0.000000
  0.000000  0.000000  0.000000

  0.000040  -0.000030  0.000000
  -0.000030  0.000010  0.000000
  0.000000  0.000000  0.000000

  -0.000064  0.000020  0.000000
  0.000020  -0.000015  0.000000
  0.000000  0.000000  0.000000

  -0.000057  0.000016  0.000000
  0.000016  -0.000014  0.000000
  0.000000  0.000000  0.000000

  0.000039  -0.000040  0.000000
  -0.000040  0.000015  0.000000
  0.000000  0.000000  0.000000

  0.000046  -0.000042  0.000000
  -0.000042  0.000015  0.000000
  0.000000  0.000000  0.000000

  -0.000047  0.000012  0.000000
  0.000012  -0.000020  0.000000
  0.000000  0.000000  0.000000

  -0.000055  0.000018  0.000000
  0.000018  -0.000023  0.000000
  0.000000  0.000000  0.000000

  0.000056  -0.000038  0.000000
  -0.000038  0.000015  0.000000
  0.000000  0.000000  0.000000

  -0.000075  0.000026  0.000000
  0.000026  -0.000019  0.000000
  0.000000  0.000000  0.000000

  -0.000070  0.000025  0.000000
  0.000025  -0.000018  0.000000
  0.000000  0.000000  0.000000

  0.000057  -0.000049  0.000000
  -0.000049  0.000020  0.000000
  0.000000  0.000000  0.000000

  0.000063  -0.000050  0.000000
  -0.000050  0.000020  0.000000
  0.000000  0.000000  0.000000

  -0.000059  0.000020  0.000000
  0.000020  -0.000024  0.000000
  0.000000  0.000000  0.000000

  -0.000068  0.000026  0.000000
  0.000026  -0.000028  0.000000
  0.000000  0.000000  0.000000

  0.000051  -0.000035  0.000000
  -0.000035  0.000014  0.000000
  0.000000  0.000000  0.000000

  0.000073  -0.000045  0.000000
  -0.000045  0.000020  0.000000
  0.000000  0.000000  0.000000

  -0.000088  0.000035  0.000000
  0.000035  -0.000023  0.000000
  0.000000  0.000000  0.000000

  -0.000083  0.000032  0.000000
  0.000032  -0.000020  0.000000
  0.000000  0.000000  0.000000

  0.000050  -0.000048  0.000000
  -0.000048  0.000021  0.000000
  0.000000  0.000000  0.000000

  0.000073  -0.000057  0.000000
  -0.000057  0.000027  0.000000
  0.000000  0.000000  0.000000

  -0.000072  0.000028  0.000000
  0.000028  -0.000028  0.000000
  0.000000  0.000000  0.000000

  -0.000080  0.000034  0.000000
  0.000034  -0.000034  0.000000
  0.000000  0.000000  0.000000

  0.000067  -0.000044  0.000000
  -0.000044  0.000020  0.000000
  0.000000  0.000000  0.000000

  0.000083  -0.000053  0.000000
  -0.000053  0.000025  0.000000
  0.000000  0.000000  0.000000

  -0.000093  0.000037  0.000000
  0.000037  -0.000024  0.000000
  0.000000  0.000000  0.000000

  -0.000101  0.000044  0.000000
  0.000044  -0.000029  0.000000
  0.000000  0.000000  0.000000

  0.000064  -0.000056  0.000000
  -0.000056  0.000026  0.000000
  0.000000  0.000000  0.000000

  -0.000077  0.000030  0.000000
  0.000030  -0.000029  0.000000
  0.000000  0.000000  0.000000

  -0.000090  0.000039  0.000000
  0.000039  -0.000034  0.000000
  0.000000  0.000000  0.000000

  -0.000085  0.000037  0.000000
  0.000037  -0.000033  0.000000
  0.000000  0.000000  0.000000

  -0.000079  0.000028  0.000000
  0.000028  -0.000019  0.000000
  0.000000  0.000000  0.000000

  -0.000098  0.000039  0.000000
  0.000039  -0.000025  0.000000
  0.000000  0.000000  0.000000

  -0.000111  0.000048  0.000000
  0.000048  -0.000029  0.000000
  0.000000  0.000000  0.000000

  -0.000081  0.000032  0.000000
  0.000032  -0.000030  0.000000
  0.000000  0.000000  0.000000

  -0.000095  0.000041  0.000000
  0.000041  -0.000034  0.000000
  0.000000  0.000000  0.000000

  -0.000108  0.000051  0.000000
  0.000051  -0.000040  0.000000
  0.000000  0.000000  0.000000

  -0.000084  0.000030  0.000000
  0.000030  -0.000020  0.000000
  0.000000  0.000000  0.000000

  -0.000115  0.000052  0.000000
  0.000052  -0.000029  0.000000
  0.000000  0.000000  0.000000

  -0.000130  0.000062  0.000000
  0.000062  -0.000034  0.000000
  0.000000  0.000000  0.000000

  -0.000124  0.000057  0.000000
  0.000057  -0.000034  0.000000
  0.000000  0.000000  0.000000

  -0.000122  0.000060  0.000000
  0.000060  -0.000044  0.000000
  0.000000  0.000000  0.000000

  -0.000103  0.000049  0.000000
  0.000049  -0.000039  0.000000
  0.000000  0.000000  0.000000

  -0.000142  0.000069  0.000000
  0.000069  -0.000039  0.000000
  0.000000  0.000000  0.000000

  -0.000138  0.000067  0.000000
  0.000067  -0.000039  0.000000
  0.000000  0.000000  0.000000

  -0.000119  0.000055  0.000000
  0.000055  -0.000034  0.000000
  0.000000  0.000000  0.000000

  -0.000106  0.000046  0.000000
  0.000046  -0.000029  0.000000
  0.000000  0.000000  0.000000

  -0.000126  0.000064  0.000000
  0.000064  -0.000048  0.000000
  0.000000  0.000000  0.000000

  -0.000135  0.000070  0.000000
  0.000070  -0.000048  0.000000
  0.000000  0.000000  0.000000

  -0.000116  0.000058  0.000000
  0.000058  -0.000044  0.000000
  0.000000  0.000000  0.000000

  -0.000159  0.000078  0.000000
  0.000078  -0.000044  0.000000
  0.000000  0.000000  0.000000

  -0.000151  0.000077  0.000000
  0.000077  -0.000044  0.000000
  0.000000  0.000000  0.000000

  -0.000132  0.000065  0.000000
  0.000065  -0.000039  0.000000
  0.000000  0.000000  0.000000

  -0.000140  0.000070  0.000000
  0.000070  -0.000050  0.000000
  0.000000  0.000000  0.000000

  -0.000151  0.000086  0.000000
  0.000086  -0.000059  0.000000
  0.000000  0.000000  0.000000

  -0.000151  0.000076  0.000000
  0.000076  -0.000051  0.000000
  0.000000  0.000000  0.000000

  -0.000129  0.000068  0.000000
  0.000068  -0.000049  0.000000
  0.000000  0.000000  0.000000

  -0.000167  0.000079  0.000000
  0.000079  -0.000045  0.000000
  0.000000  0.000000  0.000000

  -0.000146  0.000076  0.000000
  0.000076  -0.000046  0.000000
  0.000000  0.000000  0.000000

  -0.000145  0.000077  0.000000
  0.000077  -0.000048  0.000000
  0.000000  0.000000  0.000000

  -0.000122  0.000066  0.000000
  0.000066  -0.000051  0.000000
  0.000000  0.000000  0.000000

  -0.000136  0.000071  0.000000
  0.000071  -0.000044  0.000000
  0.000000  0.000000  0.000000

  -0.000126  0.000062  0.000000
  0.000062  -0.000039  0.000000
  0.000000  0.000000  0.000000

  -0.000132  0.000075  0.000000
  0.000075  -0.000056  0.000000
  0.000000  0.000000  0.000000

  -0.000116  0.000063  0.000000
  0.000063  -0.000048  0.000000
  0.000000  0.000000  0.000000

  -0.000102  0.000054  0.000000
  0.000054  -0.000044  0.000000
  0.000000  0.000000  0.000000

  -0.000154  0.000084  0.000000
  0.000084  -0.000051  0.000000
  0.000000  0.000000  0.000000

  -0.000150  0.000081  0.000000
  0.000081  -0.000047  0.000000
  0.000000  0.000000  0.000000

  -0.000132  0.000069  0.000000
  0.000069  -0.000041  0.000000
  0.000000  0.000000  0.000000

  -0.000018  0.000000  0.000000
  0.000000  -0.000002  0.000000
  0.000000  0.000000  0.000000

  -0.000008  -0.000014  0.000000
  -0.000014  -0.000006  0.000000
  0.000000  0.000000  0.000000

  0.000008  -0.000013  0.000000
  -0.000013  -0.000000  0.000000
  0.000000  0.000000  0.000000

  0.000023  -0.000020  0.000000
  -0.000020  0.000005  0.000000
  0.000000  0.000000  0.000000

  0.000008  -0.000014  0.000000
  -0.000014  -0.000002  0.000000
  0.000000  0.000000  0.000000

  -0.000023  -0.000008  0.000000
  -0.000008  -0.000004  0.000000
  0.000000  0.000000  0.000000

  -0.000034  0.000004  0.000000
  0.000004  -0.000010  0.000000
  0.000000  0.000000  0.000000

  -0.000034  0.000010  0.000000
  0.000010  -0.000017  0.000000
  0.000000  0.000000  0.000000

  -0.000032  0.000007  0.000000
  0.000007  -0.000005  0.000000
  0.000000  0.000000  0.000000

  -0.000023  -0.000006  0.000000
  -0.000006  -0.000009  0.000000
  0.000000  0.000000  0.000000

  0.000045  -0.000030  0.000000
  -0.000030  0.000009  0.000000
  0.000000  0.000000  0.000000

  0.000051  -0.000044  0.000000
  -0.000044  0.000017  0.000000
  0.000000  0.000000  0.000000

  0.000030  -0.000035  0.000000
  -0.000035  0.000015  0.000000
  0.000000  0.000000  0.000000

  0.000062  -0.000040  0.000000
  -0.000040  0.000015  0.000000
  0.000000  0.000000  0.000000

  0.000051  -0.000035  0.000000
  -0.000035  0.000012  0.000000
  0.000000  0.000000  0.000000

  0.000069  -0.000054  0.000000
  -0.000054  0.000023  0.000000
  0.000000  0.000000  0.000000

  0.000058  -0.000048  0.000000
  -0.000048  0.000015  0.000000
  0.000000  0.000000  0.000000

  0.000038  -0.000039  0.000000
  -0.000039  0.000016  0.000000
  0.000000  0.000000  0.000000

  0.000038  -0.000027  0.000000
  -0.000027  0.000006  0.000000
  0.000000  0.000000  0.000000

  0.000077  -0.000049  0.000000
  -0.000049  0.000023  0.000000
  0.000000  0.000000  0.000000

  0.000068  -0.000042  0.000000
  -0.000042  0.000016  0.000000
  0.000000  0.000000  0.000000

  0.000074  -0.000054  0.000000
  -0.000054  0.000023  0.000000
  0.000000  0.000000  0.000000

  0.000067  -0.000040  0.000000
  -0.000040  0.000010  0.000000
  0.000000  0.000000  0.000000

  0.000066  -0.000044  0.000000
  -0.000044  0.000019  0.000000
  0.000000  0.000000  0.000000

  0.000066  -0.000015  0.000000
  -0.000015  -0.000014  0.000000
  0.000000  0.000000  0.000000

  0.000097  -0.000055  0.000000
  -0.000055  0.000017  0.000000
  0.000000  0.000000  0.000000

  -0.000061  0.000018  0.000000
  0.000018  -0.000014  0.000000
  0.000000  0.000000  0.000000

  -0.000030  0.000026  0.000000
  0.000026  -0.000036  0.000000
  0.000000  0.000000  0.000000

  0.000112  -0.000057  0.000000
  -0.000057  0.000024  0.000000
  0.000000  0.000000  0.000000

  0.000127  -0.000066  0.000000
  -0.000066  0.000022  0.000000
  0.000000  0.000000  0.000000

  0.000125  -0.000067  0.000000
  -0.000067  0.000032  0.000000
  0.000000  0.000000  0.000000

  0.000133  -0.000059  0.000000
  -0.000059  0.000025  0.000000
  0.000000  0.000000  0.000000

  0.000128  -0.000066  0.000000
  -0.000066  0.000021  0.000000
  0.000000  0.000000  0.000000

  0.000089  -0.000011  0.000000
  -0.000011  -0.000003  0.000000
  0.000000  0.000000  0.000000

  0.000079  -0.000001  0.000000
  -0.000001  -0.000008  0.000000
  0.000000  0.000000  0.000000

  0.000111  -0.000004  0.000000
  -0.000004  -0.000012  0.000000
  0.000000  0.000000  0.000000

  0.000089  -0.000004  0.000000
  -0.000004  -0.000005  0.000000
  0.000000  0.000000  0.000000

  0.000067  -0.000010  0.000000
  -0.000010  -0.000006  0.000000
  0.000000  0.000000  0.000000

  0.000077  -0.000013  0.000000
  -0.000013  -0.000007  0.000000
  0.000000  0.000000  0.000000

  0.000064  -0.000001  0.000000
  -0.000001  -0.000005  0.000000
  0.000000  0.000000  0.000000

  -0.000047  0.000016  0.000000
  0.000016  -0.000023  0.000000
  0.000000  0.000000  0.000000

  -0.000068  0.000026  0.000000
  0.000026  -0.000018  0.000000
  0.000000  0.000000  0.000000

  -0.000051  0.000012  0.000000
  0.000012  -0.000012  0.000000
  0.000000  0.000000  0.000000

  0.000000  -0.000006  0.000000
  -0.000006  -0.000010  0.000000
  0.000000  0.000000  0.000000

  -0.000000  -0.000004  0.000000
  -0.000004  0.000037  0.000000
  0.000000  0.000000  0.000000

  -0.000002  -0.000003  0.000000
  -0.000003  0.000040  0.000000
  0.000000  0.000000  0.000000

  0.000064  -0.000029  0.000000
  -0.000029  -0.000006  0.000000
  0.000000  0.000000  0.000000

  -0.000009  -0.000001  0.000000
  -0.000001  0.000021  0.000000
  0.000000  0.000000  0.000000

  0.000147  -0.000049  0.000000
  -0.000049  0.000006  0.000000
  0.000000  0.000000  0.000000

  0.000143  -0.000010  0.000000
  -0.000010  -0.000004  0.000000
  0.000000  0.000000  0.000000

  -0.000004  0.000015  0.000000
  0.000015  -0.000002  0.000000
  0.000000  0.000000  0.000000

  0.000097  -0.000037  0.000000
  -0.000037  0.000008  0.000000
  0.000000  0.000000  0.000000

  -0.000146  0.000012  0.000000
  0.000012  -0.000016  0.000000
  0.000000  0.000000  0.000000

  0.000066  -0.000017  0.000000
  -0.000017  -0.000004  0.000000
  0.000000  0.000000  0.000000

  -0.000001  0.000007  0.000000
  0.000007  0.000006  0.000000
  0.000000  0.000000  0.000000

  -0.000006  -0.000006  0.000000
  -0.000006  0.000043  0.000000
  0.000000  0.000000  0.000000

  -0.000210  0.000046  0.000000
  0.000046  -0.000020  0.000000
  0.000000  0.000000  0.000000

  -0.000237  0.000062  0.000000
  0.000062  -0.000016  0.000000
  0.000000  0.000000  0.000000

  -0.000003  0.000003  0.000000
  0.000003  0.000027  0.000000
  0.000000  0.000000  0.000000

  -0.000002  0.000004  0.000000
  0.000004  0.000023  0.000000
  0.000000  0.000000  0.000000

  -0.000003  0.000005  0.000000
  0.000005  0.000023  0.000000
  0.000000  0.000000  0.000000

  -0.000003  0.000004  0.000000
  0.000004  0.000025  0.000000
  0.000000  0.000000  0.000000

  0.000025  -0.000014  0.000000
  -0.000014  -0.000004  0.000000
  0.000000  0.000000  0.000000

  0.000040  0.000001  0.000000
  0.000001  -0.000008  0.000000
  0.000000  0.000000  0.000000

  0.000173  -0.000011  0.000000
  -0.000011  -0.000006  0.000000
  0.000000  0.000000  0.000000

  -0.000020  0.000011  0.000000
  0.000011  0.000003  0.000000
  0.000000  0.000000  0.000000

  -0.000017  0.000005  0.000000
  0.000005  0.000003  0.000000
  0.000000  0.000000  0.000000

  -0.000019  0.000007  0.000000
  0.000007  0.000009  0.000000
  0.000000  0.000000  0.000000

  -0.000022  0.000012  0.000000
  0.000012  0.000000  0.000000
  0.000000  0.000000  0.000000

  -0.000015  0.000001  0.000000
  0.000001  0.000010  0.000000
  0.000000  0.000000  0.000000

  -0.000014  -0.000004  0.000000
  -0.000004  0.000017  0.000000
  0.000000  0.000000  0.000000

  -0.000016  0.000006  0.000000
  0.000006  0.000009  0.000000
  0.000000  0.000000  0.000000

  -0.000019  0.000009  0.000000
  0.000009  0.000007  0.000000
  0.000000  0.000000  0.000000

  -0.000018  0.000006  0.000000
  0.000006  -0.000001  0.000000
  0.000000  0.000000  0.000000

  -0.000023  0.000015  0.000000
  0.000015  -0.000004  0.000000
  0.000000  0.000000  0.000000

  -0.000021  0.000010  0.000000
  0.000010  -0.000006  0.000000
  0.000000  0.000000  0.000000

  -0.000024  0.000019  0.000000
  0.000019  -0.000013  0.000000
  0.000000  0.000000  0.000000

  -0.000015  0.000004  0.000000
  0.000004  0.000001  0.000000
  0.000000  0.000000  0.000000

  0.000032  -0.000025  0.000000
  -0.000025  -0.000004  0.000000
  0.000000  0.000000  0.000000

  -0.000006  -0.000001  0.000000
  -0.000001  0.000030  0.000000
  0.000000  0.000000  0.000000

  0.000004  -0.000023  0.000000
  -0.000023  0.000012  0.000000
  0.000000  0.000000  0.000000

  -0.000005  0.000015  0.000000
  0.000015  0.000004  0.000000
  0.000000  0.000000  0.000000

  0.000099  -0.000032  0.000000
  -0.000032  -0.000006  0.000000
  0.000000  0.000000  0.000000

  0.000152  -0.000080  0.000000
  -0.000080  0.000033  0.000000
  0.000000  0.000000  0.000000

  0.000023  -0.000047  0.000000
  -0.000047  0.000069  0.000000
  0.000000  0.000000  0.000000

  0.000098  -0.000069  0.000000
  -0.000069  0.000039  0.000000
  0.000000  0.000000  0.000000

  0.000079  -0.000064  0.000000
  -0.000064  0.000044  0.000000
  0.000000  0.000000  0.000000

  0.000138  -0.000040  0.000000
  -0.000040  -0.000001  0.000000
  0.000000  0.000000  0.000000

  0.000126  -0.000029  0.000000
  -0.000029  0.000001  0.000000
  0.000000  0.000000  0.000000

  0.000137  -0.000039  0.000000
  -0.000039  0.000003  0.000000
  0.000000  0.000000  0.000000

  0.000122  -0.000034  0.000000
  -0.000034  -0.000004  0.000000
  0.000000  0.000000  0.000000

  0.000109  -0.000025  0.000000
  -0.000025  -0.000001  0.000000
  0.000000  0.000000  0.000000

  0.000107  -0.000030  0.000000
  -0.000030  -0.000006  0.000000
  0.000000  0.000000  0.000000

  0.000130  -0.000032  0.000000
  -0.000032  -0.000007  0.000000
  0.000000  0.000000  0.000000

  0.000088  -0.000023  0.000000
  -0.000023  -0.000003  0.000000
  0.000000  0.000000  0.000000

  0.000083  -0.000030  0.000000
  -0.000030  -0.000008  0.000000
  0.000000  0.000000  0.000000

  0.000088  -0.000023  0.000000
  -0.000023  -0.000003  0.000000
  0.000000  0.000000  0.000000

  0.000160  -0.000042  0.000000
  -0.000042  -0.000001  0.000000
  0.000000  0.000000  0.000000

  -0.000013  0.000012  0.000000
  0.000012  0.000002  0.000000
  0.000000  0.000000  0.000000

  -0.000164  0.000051  0.000000
  0.000051  -0.000022  0.000000
  0.000000  0.000000  0.000000

  -0.000176  0.000001  0.000000
  0.000001  -0.000004  0.000000
  0.000000  0.000000  0.000000

  -0.000175  0.000016  0.000000
  0.000016  -0.000008  0.000000
  0.000000  0.000000  0.000000

  -0.000187  0.000005  0.000000
  0.000005  -0.000004  0.000000
  0.000000  0.000000  0.000000

  -0.000190  0.000018  0.000000
  0.000018  -0.000002  0.000000
  0.000000  0.000000  0.000000

  -0.000022  0.000017  0.000000
  0.000017  -0.000009  0.000000
  0.000000  0.000000  0.000000

  -0.000018  0.000015  0.000000
  0.000015  -0.000017  0.000000
  0.000000  0.000000  0.000000

  -0.000024  0.000022  0.000000
  0.000022  -0.000020  0.000000
  0.000000  0.000000  0.000000

  -0.000022  0.000021  0.000000
  0.000021  -0.000022  0.000000
  0.000000  0.000000  0.000000

  -0.000025  0.000024  0.000000
  0.000024  -0.000023  0.000000
  0.000000  0.000000  0.000000

  -0.000022  0.000020  0.000000
  0.000020  -0.000026  0.000000
  0.000000  0.000000  0.000000

  -0.000022  0.000023  0.000000
  0.000023  -0.000031  0.000000
  0.000000  0.000000  0.000000

  -0.000025  0.000024  0.000000
  0.000024  -0.000028  0.000000
  0.000000  0.000000  0.000000

  -0.000023  0.000028  0.000000
  0.000028  -0.000040  0.000000
  0.000000  0.000000  0.000000

  -0.000071  0.000022  0.000000
  0.000022  -0.000017  0.000000
  0.000000  0.000000  0.000000

  0.000019  -0.000037  0.000000
  -0.000037  0.000049  0.000000
  0.000000  0.000000  0.000000

  0.000026  -0.000047  0.000000
  -0.000047  0.000050  0.000000
  0.000000  0.000000  0.000000

  0.000027  -0.000044  0.000000
  -0.000044  0.000046  0.000000
  0.000000  0.000000  0.000000

  0.000031  -0.000053  0.000000
  -0.000053  0.000055  0.000000
  0.000000  0.000000  0.000000

  0.000005  -0.000022  0.000000
  -0.000022  0.000029  0.000000
  0.000000  0.000000  0.000000

  -0.000020  0.000034  0.000000
  0.000034  -0.000069  0.000000
  0.000000  0.000000  0.000000

  -0.000201  0.000042  0.000000
  0.000042  -0.000020  0.000000
  0.000000  0.000000  0.000000

  -0.000241  0.000046  0.000000
  0.000046  -0.000012  0.000000
  0.000000  0.000000  0.000000

  0.000001  -0.000018  0.000000
  -0.000018  0.000061  0.000000
  0.000000  0.000000  0.000000

  0.000003  -0.000015  0.000000
  -0.000015  0.000056  0.000000
  0.000000  0.000000  0.000000

  0.000001  -0.000021  0.000000
  -0.000021  0.000062  0.000000
  0.000000  0.000000  0.000000

  -0.000000  -0.000015  0.000000
  -0.000015  0.000057  0.000000
  0.000000  0.000000  0.000000

  0.000002  -0.000012  0.000000
  -0.000012  0.000050  0.000000
  0.000000  0.000000  0.000000

  0.000001  -0.000013  0.000000
  -0.000013  0.000050  0.000000
  0.000000  0.000000  0.000000

  -0.000005  -0.000010  0.000000
  -0.000010  0.000050  0.000000
  0.000000  0.000000  0.000000

  -0.000001  -0.000018  0.000000
  -0.000018  0.000056  0.000000
  0.000000  0.000000  0.000000

  -0.000001  -0.000014  0.000000
  -0.000014  0.000050  0.000000
  0.000000  0.000000  0.000000

  0.000007  -0.000031  0.000000
  -0.000031  0.000039  0.000000
  0.000000  0.000000  0.000000

  -0.000122  0.000005  0.000000
  0.000005  -0.000016  0.000000
  0.000000  0.000000  0.000000

  -0.000112  0.000015  0.000000
  0.000015  -0.000018  0.000000
  0.000000  0.000000  0.000000

  -0.000114  0.000012  0.000000
  0.000012  -0.000012  0.000000
  0.000000  0.000000  0.000000

  -0.000003  0.000005  0.000000
  0.000005  0.000021  0.000000
  0.000000  0.000000  0.000000

  -0.000111  0.000041  0.000000
  0.000041  -0.000024  0.000000
  0.000000  0.000000  0.000000

  -0.000002  0.000005  0.000000
  0.000005  0.000008  0.000000
  0.000000  0.000000  0.000000

  -0.000000  0.000005  0.000000
  0.000005  0.000007  0.000000
  0.000000  0.000000  0.000000

  -0.000002  0.000007  0.000000
  0.000007  0.000008  0.000000
  0.000000  0.000000  0.000000

  -0.000001  0.000007  0.000000
  0.000007  0.000005  0.000000
  0.000000  0.000000  0.000000

  -0.000003  0.000009  0.000000
  0.000009  0.000005  0.000000
  0.000000  0.000000  0.000000

  -0.000001  0.000004  0.000000
  0.000004  0.000011  0.000000
  0.000000  0.000000  0.000000

  0.000007  -0.000027  0.000000
  -0.000027  0.000045  0.000000
  0.000000  0.000000  0.000000

  0.000023  -0.000048  0.000000
  -0.000048  0.000082  0.000000
  0.000000  0.000000  0.000000

  -0.000158  0.000010  0.000000
  0.000010  -0.000014  0.000000
  0.000000  0.000000  0.000000

  -0.000104  0.000051  0.000000
  0.000051  -0.000034  0.000000
  0.000000  0.000000  0.000000

  -0.000137  0.000017  0.000000
  0.000017  -0.000020  0.000000
  0.000000  0.000000  0.000000

  -0.000097  0.000047  0.000000
  0.000047  -0.000039  0.000000
  0.000000  0.000000  0.000000

  -0.000113  0.000053  0.000000
  0.000053  -0.000033  0.000000
  0.000000  0.000000  0.000000

  -0.000110  0.000056  0.000000
  0.000056  -0.000044  0.000000
  0.000000  0.000000  0.000000

  -0.000091  0.000043  0.000000
  0.000043  -0.000038  0.000000
  0.000000  0.000000  0.000000

  0.000009  -0.000029  0.000000
  -0.000029  0.000055  0.000000
  0.000000  0.000000  0.000000

  0.000082  -0.000043  0.000000
  -0.000043  0.000015  0.000000
  0.000000  0.000000  0.000000

  0.000150  -0.000023  0.000000
  -0.000023  -0.000002  0.000000
  0.000000  0.000000  0.000000

  0.000170  -0.000016  0.000000
  -0.000016  -0.000007  0.000000
  0.000000  0.000000  0.000000

  0.000071  -0.000063  0.000000
  -0.000063  0.000051  0.000000
  0.000000  0.000000  0.000000

  -0.000007  0.000006  0.000000
  0.000006  0.000022  0.000000
  0.000000  0.000000  0.000000

  -0.000033  -0.000002  0.000000
  -0.000002  -0.000017  0.000000
  0.000000  0.000000  0.000000

  -0.000018  -0.000002  0.000000
  -0.000002  0.000001  0.000000
  0.000000  0.000000  0.000000

  -0.000023  0.000018  0.000000
  0.000018  -0.000010  0.000000
  0.000000  0.000000  0.000000

  -0.000050  0.000012  0.000000
  0.000012  -0.000020  0.000000
  0.000000  0.000000  0.000000

  -0.000069  0.000022  0.000000
  0.000022  -0.000016  0.000000
  0.000000  0.000000  0.000000

  -0.000067  0.000021  0.000000
  0.000021  -0.000016  0.000000
  0.000000  0.000000  0.000000

  -0.000068  0.000021  0.000000
  0.000021  -0.000024  0.000000
  0.000000  0.000000  0.000000

  -0.000087  0.000032  0.000000
  0.000032  -0.000022  0.000000
  0.000000  0.000000  0.000000

  -0.000087  0.000031  0.000000
  0.000031  -0.000028  0.000000
  0.000000  0.000000  0.000000

  -0.000109  0.000003  0.000000
  0.000003  -0.000004  0.000000
  0.000000  0.000000  0.000000

  -0.000114  0.000014  0.000000
  0.000014  -0.000007  0.000000
  0.000000  0.000000  0.000000

  0.000083  -0.000061  0.000000
  -0.000061  0.000027  0.000000
  0.000000  0.000000  0.000000

  0.000088  -0.000057  0.000000
  -0.000057  0.000030  0.000000
  0.000000  0.000000  0.000000

  0.000076  -0.000048  0.000000
  -0.000048  0.000027  0.000000
  0.000000  0.000000  0.000000

  0.000079  -0.000062  0.000000
  -0.000062  0.000032  0.000000
  0.000000  0.000000  0.000000

  -0.000002  0.000008  0.000000
  0.000008  0.000004  0.000000
  0.000000  0.000000  0.000000

  -0.000192  0.000016  0.000000
  0.000016  -0.000013  0.000000
  0.000000  0.000000  0.000000

  -0.000003  0.000005  0.000000
  0.000005  0.000021  0.000000
  0.000000  0.000000  0.000000

  -0.000037  0.000006  0.000000
  0.000006  -0.000009  0.000000
  0.000000  0.000000  0.000000

  0.000059  -0.000026  0.000000
  -0.000026  0.000002  0.000000
  0.000000  0.000000  0.000000

  -0.000035  0.000039  0.000000
  0.000039  -0.000050  0.000000
  0.000000  0.000000  0.000000

  -0.000001  0.000005  0.000000
  0.000005  0.000010  0.000000
  0.000000  0.000000  0.000000

  -0.000171  0.000073  0.000000
  0.000073  -0.000039  0.000000
  0.000000  0.000000  0.000000

  0.000002  -0.000001  0.000000
  -0.000001  -0.000019  0.000000
  0.000000  0.000000  0.000000

  0.000108  -0.000008  0.000000
  -0.000008  -0.000003  0.000000
  0.000000  0.000000  0.000000

  0.000108  -0.000009  0.000000
  -0.000009  -0.000009  0.000000
  0.000000  0.000000  0.000000

  -0.000021  0.000013  0.000000
  0.000013  -0.000014  0.000000
  0.000000  0.000000  0.000000

  0.000036  -0.000006  0.000000
  -0.000006  -0.000012  0.000000
  0.000000  0.000000  0.000000

  -0.000085  0.000075  0.000000
  0.000075  -0.000073  0.000000
  0.000000  0.000000  0.000000

  -0.000005  -0.000004  0.000000
  -0.000004  0.000043  0.000000
  0.000000  0.000000  0.000000

  -0.000201  0.000046  0.000000
  0.000046  -0.000016  0.000000
  0.000000  0.000000  0.000000

  -0.000210  0.000035  0.000000
  0.000035  -0.000015  0.000000
  0.000000  0.000000  0.000000

  -0.000185  0.000034  0.000000
  0.000034  -0.000020  0.000000
  0.000000  0.000000  0.000000

  -0.000205  0.000050  0.000000
  0.000050  -0.000016  0.000000
  0.000000  0.000000  0.000000

  0.000112  -0.000070  0.000000
  -0.000070  0.000030  0.000000
  0.000000  0.000000  0.000000

  0.000100  -0.000059  0.000000
  -0.000059  0.000031  0.000000
  0.000000  0.000000  0.000000

  0.000114  -0.000070  0.000000
  -0.000070  0.000029  0.000000
  0.000000  0.000000  0.000000

  0.000099  -0.000062  0.000000
  -0.000062  0.000025  0.000000
  0.000000  0.000000  0.000000

  -0.000023  0.000004  0.000000
  0.000004  -0.000003  0.000000
  0.000000  0.000000  0.000000

  0.000190  -0.000056  0.000000
  -0.000056  0.000008  0.000000
  0.000000  0.000000  0.000000

  0.000173  -0.000052  0.000000
  -0.000052  0.000004  0.000000
  0.000000  0.000000  0.000000

  -0.000021  0.000028  0.000000
  0.000028  -0.000048  0.000000
  0.000000  0.000000  0.000000

  0.000040  -0.000009  0.000000
  -0.000009  -0.000010  0.000000
  0.000000  0.000000  0.000000

  -0.000025  0.000025  0.000000
  0.000025  -0.000024  0.000000
  0.000000  0.000000  0.000000

  0.000035  -0.000031  0.000000
  -0.000031  0.000003  0.000000
  0.000000  0.000000  0.000000

  0.000152  -0.000021  0.000000
  -0.000021  -0.000002  0.000000
  0.000000  0.000000  0.000000

  0.000171  -0.000013  0.000000
  -0.000013  -0.000008  0.000000
  0.000000  0.000000  0.000000

  0.000062  -0.000056  0.000000
  -0.000056  0.000045  0.000000
  0.000000  0.000000  0.000000

  0.000016  -0.000021  0.000000
  -0.000021  0.000006  0.000000
  0.000000  0.000000  0.000000

  -0.000004  0.000014  0.000000
  0.000014  -0.000014  0.000000
  0.000000  0.000000  0.000000

  0.000078  -0.000067  0.000000
  -0.000067  0.000039  0.000000
  0.000000  0.000000  0.000000

  0.000102  -0.000080  0.000000
  -0.000080  0.000048  0.000000
  0.000000  0.000000  0.000000

  0.000098  -0.000067  0.000000
  -0.000067  0.000046  0.000000
  0.000000  0.000000  0.000000

  0.000091  -0.000068  0.000000
  -0.000068  0.000049  0.000000
  0.000000  0.000000  0.000000

  0.000012  -0.000036  0.000000
  -0.000036  0.000048  0.000000
  0.000000  0.000000  0.000000

  0.000103  -0.000031  0.000000
  -0.000031  -0.000006  0.000000
  0.000000  0.000000  0.000000

  0.000126  -0.000028  0.000000
  -0.000028  0.000001  0.000000
  0.000000  0.000000  0.000000

  0.000150  -0.000029  0.000000
  -0.000029  -0.000003  0.000000
  0.000000  0.000000  0.000000

  -0.000008  -0.000005  0.000000
  -0.000005  0.000041  0.000000
  0.000000  0.000000  0.000000

  -0.000005  -0.000004  0.000000
  -0.000004  0.000034  0.000000
  0.000000  0.000000  0.000000

  -0.000007  -0.000007  0.000000
  -0.000007  0.000039  0.000000
  0.000000  0.000000  0.000000

  -0.000006  -0.000002  0.000000
  -0.000002  0.000033  0.000000
  0.000000  0.000000  0.000000

  -0.000004  -0.000006  0.000000
  -0.000006  0.000040  0.000000
  0.000000  0.000000  0.000000

  -0.000006  -0.000009  0.000000
  -0.000009  0.000045  0.000000
  0.000000  0.000000  0.000000

  -0.000005  -0.000010  0.000000
  -0.000010  0.000044  0.000000
  0.000000  0.000000  0.000000

  -0.000170  0.000073  0.000000
  0.000073  -0.000041  0.000000
  0.000000  0.000000  0.000000

  0.000172  -0.000014  0.000000
  -0.000014  -0.000009  0.000000
  0.000000  0.000000  0.000000

  0.000152  -0.000011  0.000000
  -0.000011  -0.000001  0.000000
  0.000000  0.000000  0.000000

  0.000148  -0.000011  0.000000
  -0.000011  -0.000002  0.000000
  0.000000  0.000000  0.000000

  0.000172  -0.000013  0.000000
  -0.000013  -0.000009  0.000000
  0.000000  0.000000  0.000000

  -0.000160  0.000031  0.000000
  0.000031  -0.000020  0.000000
  0.000000  0.000000  0.000000

  0.000093  -0.000067  0.000000
  -0.000067  0.000029  0.000000
  0.000000  0.000000  0.000000

  0.000101  -0.000058  0.000000
  -0.000058  0.000024  0.000000
  0.000000  0.000000  0.000000

  -0.000004  0.000016  0.000000
  0.000016  -0.000001  0.000000
  0.000000  0.000000  0.000000

  -0.000001  -0.000007  0.000000
  -0.000007  0.000045  0.000000
  0.000000  0.000000  0.000000

  -0.000002  -0.000005  0.000000
  -0.000005  -0.000007  0.000000
  0.000000  0.000000  0.000000

  0.000143  -0.000049  0.000000
  -0.000049  0.000007  0.000000
  0.000000  0.000000  0.000000

  0.000170  -0.000020  0.000000
  -0.000020  -0.000011  0.000000
  0.000000  0.000000  0.000000

  -0.000023  0.000028  0.000000
  0.000028  -0.000046  0.000000
  0.000000  0.000000  0.000000

  -0.000176  0.000038  0.000000
  0.000038  -0.000015  0.000000
  0.000000  0.000000  0.000000

  0.000001  0.000011  0.000000
  0.000011  -0.000004  0.000000
  0.000000  0.000000  0.000000

  -0.000000  0.000010  0.000000
  0.000010  -0.000003  0.000000
  0.000000  0.000000  0.000000

  0.000001  0.000012  0.000000
  0.000012  -0.000000  0.000000
  0.000000  0.000000  0.000000

  0.000004  0.000009  0.000000
  0.000009  -0.000004  0.000000
  0.000000  0.000000  0.000000

  -0.000000  0.000010  0.000000
  0.000010  -0.000007  0.000000
  0.000000  0.000000  0.000000

  0.000002  0.000010  0.000000
  0.000010  -0.000002  0.000000
  0.000000  0.000000  0.000000

  -0.000002  0.000011  0.000000
  0.000011  -0.000004  0.000000
  0.000000  0.000000  0.000000

  -0.000001  0.000008  0.000000
  0.000008  -0.000005  0.000000
  0.000000  0.000000  0.000000

  -0.000000  0.000012  0.000000
  0.000012  -0.000005  0.000000
  0.000000  0.000000  0.000000

  -0.000001  0.000011  0.000000
  0.000011  -0.000008  0.000000
  0.000000  0.000000  0.000000

  -0.000001  0.000008  0.000000
  0.000008  -0.000011  0.000000
  0.000000  0.000000  0.000000

  -0.000000  0.000006  0.000000
  0.000006  -0.000010  0.000000
  0.000000  0.000000  0.000000

  -0.000002  0.000010  0.000000
  0.000010  -0.000007  0.000000
  0.000000  0.000000  0.000000

  -0.000001  0.000007  0.000000
  0.000007  -0.000010  0.000000
  0.000000  0.000000  0.000000

  -0.000002  0.000009  0.000000
  0.000009  -0.000011  0.000000
  0.000000  0.000000  0.000000

  -0.000003  0.000011  0.000000
  0.000011  -0.000007  0.000000
  0.000000  0.000000  0.000000

  -0.000002  0.000009  0.000000
  0.000009  -0.000010  0.000000
  0.000000  0.000000  0.000000

  -0.000002  0.000012  0.000000
  0.000012  -0.000008  0.000000
  0.000000  0.000000  0.000000

  -0.000002  0.000008  0.000000
  0.000008  -0.000015  0.000000
  0.000000  0.000000  0.000000

  -0.000002  0.000006  0.000000
  0.000006  -0.000014  0.000000
  0.000000  0.000000  0.000000

  -0.000003  0.000010  0.000000
  0.000010  -0.000011  0.000000
  0.000000  0.000000  0.000000

  -0.000002  0.000007  0.000000
  0.000007  -0.000014  0.000000
  0.000000  0.000000  0.000000

  -0.000003  0.000011  0.000000
  0.000011  -0.000012  0.000000
  0.000000  0.000000  0.000000

  -0.000003  0.000010  0.000000
  0.000010  -0.000015  0.000000
  0.000000  0.000000  0.000000

  -0.000004  0.000012  0.000000
  0.000012  -0.000009  0.000000
  0.000000  0.000000  0.000000

  -0.000004  0.000011  0.000000
  0.000011  -0.000013  0.000000
  0.000000  0.000000  0.000000

  -0.000003  0.000012  0.000000
  0.000012  -0.000005  0.000000
  0.000000  0.000000  0.000000

  -0.000003  0.000009  0.000000
  0.000009  -0.000015  0.000000
  0.000000  0.000000  0.000000

  -0.000003  0.000008  0.000000
  0.000008  -0.000017  0.000000
  0.000000  0.000000  0.000000

  -0.000002  0.000007  0.000000
  0.000007  -0.000019  0.000000
  0.000000  0.000000  0.000000

  -0.000003  0.000012  0.000000
  0.000012  -0.000009  0.000000
  0.000000  0.000000  0.000000

  0.000063  -0.000042  0.000000
  -0.000042  0.000018  0.000000
  0.000000  0.000000  0.000000

  0.000032  -0.000008  0.000000
  -0.000008  -0.000007  0.000000
  0.000000  0.000000  0.000000

  0.000056  0.000000  0.000000
  0.000000  -0.000010  0.000000
  0.000000  0.000000  0.000000

  -0.000003  0.000008  0.000000
  0.000008  0.000005  0.000000
  0.000000  0.000000  0.000000

  -0.000003  0.000007  0.000000
  0.000007  0.000004  0.000000
  0.000000  0.000000  0.000000

  -0.000023  0.000016  0.000000
  0.000016  -0.000007  0.000000
  0.000000  0.000000  0.000000

  0.000142  -0.000054  0.000000
  -0.000054  0.000020  0.000000
  0.000000  0.000000  0.000000

  0.000158  -0.000063  0.000000
  -0.000063  0.000013  0.000000
  0.000000  0.000000  0.000000

  0.000155  -0.000064  0.000000
  -0.000064  0.000016  0.000000
  0.000000  0.000000  0.000000

  -0.000163  0.000015  0.000000
  0.000015  -0.000020  0.000000
  0.000000  0.000000  0.000000

  0.000009  -0.000032  0.000000
  -0.000032  0.000038  0.000000
  0.000000  0.000000  0.000000

  0.000112  -0.000045  0.000000
  -0.000045  0.000013  0.000000
  0.000000  0.000000  0.000000

  -0.000086  0.000029  0.000000
  0.000029  -0.000029  0.000000
  0.000000  0.000000  0.000000

  -0.000151  0.000060  0.000000
  0.000060  -0.000037  0.000000
  0.000000  0.000000  0.000000

  -0.000026  0.000037  0.000000
  0.000037  -0.000062  0.000000
  0.000000  0.000000  0.000000

  -0.000022  0.000036  0.000000
  0.000036  -0.000071  0.000000
  0.000000  0.000000  0.000000

  -0.000134  0.000061  0.000000
  0.000061  -0.000042  0.000000
  0.000000  0.000000  0.000000

  -0.000157  0.000072  0.000000
  0.000072  -0.000039  0.000000
  0.000000  0.000000  0.000000

  -0.000150  0.000079  0.000000
  0.000079  -0.000048  0.000000
  0.000000  0.000000  0.000000

  -0.000153  0.000071  0.000000
  0.000071  -0.000036  0.000000
  0.000000  0.000000  0.000000

  -0.000045  0.000003  0.000000
  0.000003  -0.000009  0.000000
  0.000000  0.000000  0.000000

  -0.000119  0.000060  0.000000
  0.000060  -0.000039  0.000000
  0.000000  0.000000  0.000000

  -0.000077  0.000071  0.000000
  0.000071  -0.000077  0.000000
  0.000000  0.000000  0.000000

  -0.000005  0.000016  0.000000
  0.000016  0.000003  0.000000
  0.000000  0.000000  0.000000

  0.000019  -0.000042  0.000000
  -0.000042  0.000060  0.000000
  0.000000  0.000000  0.000000

  0.000012  -0.000028  0.000000
  -0.000028  0.000041  0.000000
  0.000000  0.000000  0.000000

  0.000190  -0.000019  0.000000
  -0.000019  -0.000008  0.000000
  0.000000  0.000000  0.000000

  0.000171  -0.000012  0.000000
  -0.000012  0.000002  0.000000
  0.000000  0.000000  0.000000

  0.000157  -0.000043  0.000000
  -0.000043  0.000001  0.000000
  0.000000  0.000000  0.000000

  -0.000010  0.000016  0.000000
  0.000016  -0.000008  0.000000
  0.000000  0.000000  0.000000

  0.000180  -0.000043  0.000000
  -0.000043  -0.000003  0.000000
  0.000000  0.000000  0.000000

  0.000018  -0.000027  0.000000
  -0.000027  0.000001  0.000000
  0.000000  0.000000  0.000000

  0.000108  -0.000028  0.000000
  -0.000028  0.000000  0.000000
  0.000000  0.000000  0.000000

  0.000074  -0.000056  0.000000
  -0.000056  0.000036  0.000000
  0.000000  0.000000  0.000000

  0.000082  -0.000067  0.000000
  -0.000067  0.000037  0.000000
  0.000000  0.000000  0.000000

  -0.000020  0.000030  0.000000
  0.000030  -0.000058  0.000000
  0.000000  0.000000  0.000000

  -0.000013  -0.000007  0.000000
  -0.000007  -0.000010  0.000000
  0.000000  0.000000  0.000000

  -0.000002  -0.000012  0.000000
  -0.000012  0.000055  0.000000
  0.000000  0.000000  0.000000

  -0.000039  0.000028  0.000000
  0.000028  -0.000026  0.000000
  0.000000  0.000000  0.000000

  -0.000002  0.000003  0.000000
  0.000003  0.000022  0.000000
  0.000000  0.000000  0.000000

  -0.000040  0.000007  0.000000
  0.000007  -0.000011  0.000000
  0.000000  0.000000  0.000000

  0.000062  -0.000025  0.000000
  -0.000025  0.000001  0.000000
  0.000000  0.000000  0.000000

  -0.000046  0.000044  0.000000
  0.000044  -0.000053  0.000000
  0.000000  0.000000  0.000000

  0.000014  -0.000018  0.000000
  -0.000018  -0.000008  0.000000
  0.000000  0.000000  0.000000

  0.000005  -0.000023  0.000000
  -0.000023  0.000067  0.000000
  0.000000  0.000000  0.000000

  0.000075  -0.000070  0.000000
  -0.000070  0.000050  0.000000
  0.000000  0.000000  0.000000

  0.000079  -0.000012  0.000000
  -0.000012  -0.000005  0.000000
  0.000000  0.000000  0.000000

  -0.000004  -0.000015  0.000000
  -0.000015  0.000024  0.000000
  0.000000  0.000000  0.000000

  0.000014  -0.000009  0.000000
  -0.000009  -0.000007  0.000000
  0.000000  0.000000  0.000000

  -0.000027  0.000026  0.000000
  0.000026  -0.000026  0.000000
  0.000000  0.000000  0.000000

  -0.000023  0.000024  0.000000
  0.000024  -0.000036  0.000000
  0.000000  0.000000  0.000000

  -0.000025  0.000023  0.000000
  0.000023  -0.000027  0.000000
  0.000000  0.000000  0.000000

  -0.000089  0.000007  0.000000
  0.000007  -0.000009  0.000000
  0.000000  0.000000  0.000000

  -0.000067  0.000001  0.000000
  0.000001  -0.000019  0.000000
  0.000000  0.000000  0.000000

  -0.000008  -0.000003  0.000000
  -0.000003  0.000037  0.000000
  0.000000  0.000000  0.000000

  0.000049  -0.000066  0.000000
  -0.000066  0.000069  0.000000
  0.000000  0.000000  0.000000

  -0.000023  0.000032  0.000000
  0.000032  -0.000056  0.000000
  0.000000  0.000000  0.000000

  -0.000022  0.000037  0.000000
  0.000037  -0.000067  0.000000
  0.000000  0.000000  0.000000

  -0.000037  0.000032  0.000000
  0.000032  -0.000044  0.000000
  0.000000  0.000000  0.000000

  -0.000042  0.000038  0.000000
  0.000038  -0.000041  0.000000
  0.000000  0.000000  0.000000

  -0.000035  0.000029  0.000000
  0.000029  -0.000042  0.000000
  0.000000  0.000000  0.000000

  -0.000039  0.000040  0.000000
  0.000040  -0.000043  0.000000
  0.000000  0.000000  0.000000

  0.000109  -0.000061  0.000000
  -0.000061  0.000020  0.000000
  0.000000  0.000000  0.000000

  0.000097  -0.000060  0.000000
  -0.000060  0.000027  0.000000
  0.000000  0.000000  0.000000

  0.000111  -0.000058  0.000000
  -0.000058  0.000024  0.000000
  0.000000  0.000000  0.000000

  0.000122  -0.000069  0.000000
  -0.000069  0.000028  0.000000
  0.000000  0.000000  0.000000

  0.000119  -0.000069  0.000000
  -0.000069  0.000034  0.000000
  0.000000  0.000000  0.000000

  0.000129  -0.000061  0.000000
  -0.000061  0.000029  0.000000
  0.000000  0.000000  0.000000

  0.000123  -0.000068  0.000000
  -0.000068  0.000024  0.000000
  0.000000  0.000000  0.000000

  0.000079  -0.000046  0.000000
  -0.000046  0.000020  0.000000
  0.000000  0.000000  0.000000

  -0.000031  0.000030  0.000000
  0.000030  -0.000033  0.000000
  0.000000  0.000000  0.000000

  -0.000027  0.000029  0.000000
  0.000029  -0.000043  0.000000
  0.000000  0.000000  0.000000

  0.000000  -0.000001  0.000000
  -0.000001  -0.000011  0.000000
  0.000000  0.000000  0.000000

  -0.000007  -0.000011  0.000000
  -0.000011  -0.000013  0.000000
  0.000000  0.000000  0.000000

  -0.000188  0.000063  0.000000
  0.000063  -0.000027  0.000000
  0.000000  0.000000  0.000000

  -0.000166  0.000051  0.000000
  0.000051  -0.000029  0.000000
  0.000000  0.000000  0.000000

  -0.000164  0.000054  0.000000
  0.000054  -0.000025  0.000000
  0.000000  0.000000  0.000000

  -0.000189  0.000061  0.000000
  0.000061  -0.000029  0.000000
  0.000000  0.000000  0.000000

  -0.000216  0.000022  0.000000
  0.000022  -0.000011  0.000000
  0.000000  0.000000  0.000000

  0.000127  -0.000009  0.000000
  -0.000009  -0.000003  0.000000
  0.000000  0.000000  0.000000

  -0.000012  0.000008  0.000000
  0.000008  0.000006  0.000000
  0.000000  0.000000  0.000000

  -0.000013  0.000003  0.000000
  0.000003  0.000012  0.000000
  0.000000  0.000000  0.000000

  -0.000116  0.000048  0.000000
  0.000048  -0.000038  0.000000
  0.000000  0.000000  0.000000

  0.000112  -0.000015  0.000000
  -0.000015  -0.000013  0.000000
  0.000000  0.000000  0.000000

  0.000093  -0.000010  0.000000
  -0.000010  -0.000006  0.000000
  0.000000  0.000000  0.000000

  -0.000074  0.000070  0.000000
  0.000070  -0.000076  0.000000
  0.000000  0.000000  0.000000

  -0.000004  0.000013  0.000000
  0.000013  -0.000008  0.000000
  0.000000  0.000000  0.000000

  -0.000191  0.000026  0.000000
  0.000026  -0.000015  0.000000
  0.000000  0.000000  0.000000

  0.000044  -0.000066  0.000000
  -0.000066  0.000082  0.000000
  0.000000  0.000000  0.000000

  -0.000035  0.000033  0.000000
  0.000033  -0.000036  0.000000
  0.000000  0.000000  0.000000

  0.000054  -0.000031  0.000000
  -0.000031  -0.000003  0.000000
  0.000000  0.000000  0.000000

  0.000032  -0.000033  0.000000
  -0.000033  0.000017  0.000000
  0.000000  0.000000  0.000000

  0.000024  -0.000003  0.000000
  -0.000003  -0.000010  0.000000
  0.000000  0.000000  0.000000

  -0.000053  0.000063  0.000000
  0.000063  -0.000080  0.000000
  0.000000  0.000000  0.000000

  -0.000049  0.000054  0.000000
  0.000054  -0.000078  0.000000
  0.000000  0.000000  0.000000

  -0.000057  0.000068  0.000000
  0.000068  -0.000084  0.000000
  0.000000  0.000000  0.000000

  -0.000049  0.000061  0.000000
  0.000061  -0.000088  0.000000
  0.000000  0.000000  0.000000

  0.000107  -0.000019  0.000000
  -0.000019  -0.000003  0.000000
  0.000000  0.000000  0.000000

  -0.000024  0.000020  0.000000
  0.000020  -0.000014  0.000000
  0.000000  0.000000  0.000000

  -0.000002  -0.000008  0.000000
  -0.000008  -0.000006  0.000000
  0.000000  0.000000  0.000000

  0.000075  -0.000066  0.000000
  -0.000066  0.000039  0.000000
  0.000000  0.000000  0.000000

  -0.000019  0.000013  0.000000
  0.000013  -0.000002  0.000000
  0.000000  0.000000  0.000000

  -0.000045  0.000005  0.000000
  0.000005  -0.000005  0.000000
  0.000000  0.000000  0.000000

  0.000052  -0.000044  0.000000
  -0.000044  0.000018  0.000000
  0.000000  0.000000  0.000000

  0.000120  -0.000086  0.000000
  -0.000086  0.000052  0.000000
  0.000000  0.000000  0.000000

  0.000012  -0.000029  0.000000
  -0.000029  0.000041  0.000000
  0.000000  0.000000  0.000000

  0.000110  -0.000034  0.000000
  -0.000034  0.000005  0.000000
  0.000000  0.000000  0.000000

  -0.000005  -0.000009  0.000000
  -0.000009  0.000040  0.000000
  0.000000  0.000000  0.000000

  -0.000008  -0.000004  0.000000
  -0.000004  0.000037  0.000000
  0.000000  0.000000  0.000000

  -0.000186  0.000053  0.000000
  0.000053  -0.000021  0.000000
  0.000000  0.000000  0.000000

  -0.000185  0.000059  0.000000
  0.000059  -0.000028  0.000000
  0.000000  0.000000  0.000000

  -0.000164  0.000044  0.000000
  0.000044  -0.000026  0.000000
  0.000000  0.000000  0.000000

  -0.000185  0.000059  0.000000
  0.000059  -0.000022  0.000000
  0.000000  0.000000  0.000000

  -0.000165  0.000050  0.000000
  0.000050  -0.000026  0.000000
  0.000000  0.000000  0.000000

  -0.000221  0.000067  0.000000
  0.000067  -0.000026  0.000000
  0.000000  0.000000  0.000000

  -0.000184  0.000057  0.000000
  0.000057  -0.000030  0.000000
  0.000000  0.000000  0.000000

  -0.000183  0.000063  0.000000
  0.000063  -0.000027  0.000000
  0.000000  0.000000  0.000000

  -0.000002  -0.000012  0.000000
  -0.000012  0.000054  0.000000
  0.000000  0.000000  0.000000

  -0.000062  0.000021  0.000000
  0.000021  -0.000025  0.000000
  0.000000  0.000000  0.000000

  -0.000096  0.000056  0.000000
  0.000056  -0.000043  0.000000
  0.000000  0.000000  0.000000

  -0.000004  0.000016  0.000000
  0.000016  0.000001  0.000000
  0.000000  0.000000  0.000000

  -0.000051  0.000000  0.000000
  0.000000  -0.000012  0.000000
  0.000000  0.000000  0.000000

  -0.000003  0.000000  0.000000
  0.000000  0.000033  0.000000
  0.000000  0.000000  0.000000

  0.000210  -0.000024  0.000000
  -0.000024  -0.000005  0.000000
  0.000000  0.000000  0.000000

  -0.000100  0.000042  0.000000
  0.000042  -0.000025  0.000000
  0.000000  0.000000  0.000000

  0.000024  -0.000049  0.000000
  -0.000049  0.000070  0.000000
  0.000000  0.000000  0.000000

  -0.000016  -0.000002  0.000000
  -0.000002  -0.000009  0.000000
  0.000000  0.000000  0.000000

  0.000087  -0.000016  0.000000
  -0.000016  -0.000005  0.000000
  0.000000  0.000000  0.000000

  0.000004  -0.000018  0.000000
  -0.000018  0.000056  0.000000
  0.000000  0.000000  0.000000

  0.000130  -0.000045  0.000000
  -0.000045  0.000005  0.000000
  0.000000  0.000000  0.000000

  0.000114  -0.000041  0.000000
  -0.000041  0.000013  0.000000
  0.000000  0.000000  0.000000

  0.000127  -0.000054  0.000000
  -0.000054  0.000010  0.000000
  0.000000  0.000000  0.000000

  -0.000000  -0.000023  0.000000
  -0.000023  0.000028  0.000000
  0.000000  0.000000  0.000000

  -0.000000  -0.000021  0.000000
  -0.000021  0.000032  0.000000
  0.000000  0.000000  0.000000

  -0.000003  -0.000014  0.000000
  -0.000014  0.000022  0.000000
  0.000000  0.000000  0.000000

  -0.000001  -0.000024  0.000000
  -0.000024  0.000028  0.000000
  0.000000  0.000000  0.000000

  -0.000093  0.000037  0.000000
  0.000037  -0.000024  0.000000
  0.000000  0.000000  0.000000

  -0.000040  0.000045  0.000000
  0.000045  -0.000059  0.000000
  0.000000  0.000000  0.000000

  -0.000048  0.000049  0.000000
  0.000049  -0.000059  0.000000
  0.000000  0.000000  0.000000

  -0.000006  -0.000003  0.000000
  -0.000003  0.000033  0.000000
  0.000000  0.000000  0.000000

  -0.000003  0.000012  0.000000
  0.000012  -0.000017  0.000000
  0.000000  0.000000  0.000000

  -0.000008  0.000001  0.000000
  0.000001  0.000026  0.000000
  0.000000  0.000000  0.000000

  0.000102  -0.000081  0.000000
  -0.000081  0.000048  0.000000
  0.000000  0.000000  0.000000

  0.000066  0.000000  0.000000
  0.000000  -0.000007  0.000000
  0.000000  0.000000  0.000000

  -0.000003  0.000004  0.000000
  0.000004  0.000025  0.000000
  0.000000  0.000000  0.000000

  -0.000003  0.000006  0.000000
  0.000006  0.000021  0.000000
  0.000000  0.000000  0.000000

  -0.000159  0.000004  0.000000
  0.000004  -0.000005  0.000000
  0.000000  0.000000  0.000000

  -0.000176  0.000015  0.000000
  0.000015  -0.000004  0.000000
  0.000000  0.000000  0.000000

  -0.000138  0.000012  0.000000
  0.000012  -0.000013  0.000000
  0.000000  0.000000  0.000000

  -0.000018  0.000032  0.000000
  0.000032  -0.000069  0.000000
  0.000000  0.000000  0.000000

  0.000152  -0.000039  0.000000
  -0.000039  0.000008  0.000000
  0.000000  0.000000  0.000000

  -0.000002  -0.000013  0.000000
  -0.000013  0.000056  0.000000
  0.000000  0.000000  0.000000

  0.000213  -0.000016  0.000000
  -0.000016  -0.000007  0.000000
  0.000000  0.000000  0.000000

  -0.000023  0.000010  0.000000
  0.000010  0.000005  0.000000
  0.000000  0.000000  0.000000

  0.000067  -0.000017  0.000000
  -0.000017  -0.000013  0.000000
  0.000000  0.000000  0.000000

  0.000001  -0.000019  0.000000
  -0.000019  0.000036  0.000000
  0.000000  0.000000  0.000000

  0.000016  -0.000018  0.000000
  -0.000018  -0.000008  0.000000
  0.000000  0.000000  0.000000

  -0.000022  0.000006  0.000000
  0.000006  0.000008  0.000000
  0.000000  0.000000  0.000000

  -0.000099  0.000051  0.000000
  0.000051  -0.000035  0.000000
  0.000000  0.000000  0.000000

  -0.000099  0.000049  0.000000
  0.000049  -0.000042  0.000000
  0.000000  0.000000  0.000000

  -0.000116  0.000059  0.000000
  0.000059  -0.000036  0.000000
  0.000000  0.000000  0.000000

  -0.000031  0.000038  0.000000
  0.000038  -0.000061  0.000000
  0.000000  0.000000  0.000000

  0.000080  -0.000071  0.000000
  -0.000071  0.000049  0.000000
  0.000000  0.000000  0.000000

  0.000177  -0.000067  0.000000
  -0.000067  0.000017  0.000000
  0.000000  0.000000  0.000000

  -0.000017  0.000000  0.000000
  0.000000  -0.000011  0.000000
  0.000000  0.000000  0.000000

  -0.000032  0.000003  0.000000
  0.000003  -0.000015  0.000000
  0.000000  0.000000  0.000000

  -0.000049  0.000012  0.000000
  0.000012  -0.000011  0.000000
  0.000000  0.000000  0.000000

  0.000047  -0.000065  0.000000
  -0.000065  0.000071  0.000000
  0.000000  0.000000  0.000000

  0.000157  -0.000037  0.000000
  -0.000037  -0.000002  0.000000
  0.000000  0.000000  0.000000

  0.000041  -0.000020  0.000000
  -0.000020  -0.000001  0.000000
  0.000000  0.000000  0.000000

  0.000058  -0.000030  0.000000
  -0.000030  -0.000004  0.000000
  0.000000  0.000000  0.000000

  0.000081  -0.000060  0.000000
  -0.000060  0.000027  0.000000
  0.000000  0.000000  0.000000

  -0.000165  0.000054  0.000000
  0.000054  -0.000025  0.000000
  0.000000  0.000000  0.000000

  0.000108  -0.000006  0.000000
  -0.000006  -0.000005  0.000000
  0.000000  0.000000  0.000000

  -0.000012  0.000002  0.000000
  0.000002  0.000011  0.000000
  0.000000  0.000000  0.000000

  0.000133  -0.000016  0.000000
  -0.000016  -0.000011  0.000000
  0.000000  0.000000  0.000000

  0.000133  -0.000014  0.000000
  -0.000014  -0.000002  0.000000
  0.000000  0.000000  0.000000

  0.000114  -0.000011  0.000000
  -0.000011  -0.000005  0.000000
  0.000000  0.000000  0.000000

  -0.000001  0.000002  0.000000
  0.000002  0.000013  0.000000
  0.000000  0.000000  0.000000

  0.000187  -0.000026  0.000000
  -0.000026  -0.000009  0.000000
  0.000000  0.000000  0.000000

  -0.000009  0.000017  0.000000
  0.000017  -0.000013  0.000000
  0.000000  0.000000  0.000000

  0.000086  -0.000050  0.000000
  -0.000050  0.000023  0.000000
  0.000000  0.000000  0.000000

  0.000044  -0.000020  0.000000
  -0.000020  -0.000002  0.000000
  0.000000  0.000000  0.000000

  0.000080  -0.000007  0.000000
  -0.000007  -0.000005  0.000000
  0.000000  0.000000  0.000000

  -0.000101  0.000038  0.000000
  0.000038  -0.000033  0.000000
  0.000000  0.000000  0.000000

  0.000012  -0.000032  0.000000
  -0.000032  0.000036  0.000000
  0.000000  0.000000  0.000000

  0.000160  -0.000077  0.000000
  -0.000077  0.000027  0.000000
  0.000000  0.000000  0.000000

  0.000029  -0.000043  0.000000
  -0.000043  0.000055  0.000000
  0.000000  0.000000  0.000000

  -0.000002  0.000005  0.000000
  0.000005  0.000020  0.000000
  0.000000  0.000000  0.000000

  0.000190  -0.000020  0.000000
  -0.000020  -0.000010  0.000000
  0.000000  0.000000  0.000000

  0.000106  -0.000074  0.000000
  -0.000074  0.000032  0.000000
  0.000000  0.000000  0.000000

  -0.000068  0.000067  0.000000
  0.000067  -0.000077  0.000000
  0.000000  0.000000  0.000000

  -0.000105  0.000007  0.000000
  0.000007  -0.000017  0.000000
  0.000000  0.000000  0.000000

  -0.000022  0.000037  0.000000
  0.000037  -0.000063  0.000000
  0.000000  0.000000  0.000000

  0.000004  -0.000023  0.000000
  -0.000023  0.000049  0.000000
  0.000000  0.000000  0.000000

  0.000111  -0.000047  0.000000
  -0.000047  0.000003  0.000000
  0.000000  0.000000  0.000000

  -0.000003  0.000012  0.000000
  0.000012  -0.000006  0.000000
  0.000000  0.000000  0.000000

  -0.000093  0.000004  0.000000
  0.000004  -0.000015  0.000000
  0.000000  0.000000  0.000000

  0.000073  -0.000037  0.000000
  -0.000037  -0.000000  0.000000
  0.000000  0.000000  0.000000

  0.000057  -0.000027  0.000000
  -0.000027  0.000003  0.000000
  0.000000  0.000000  0.000000

  -0.000188  0.000016  0.000000
  0.000016  -0.000015  0.000000
  0.000000  0.000000  0.000000

  -0.000003  -0.000004  0.000000
  -0.000004  0.000042  0.000000
  0.000000  0.000000  0.000000

  0.000032  -0.000027  0.000000
  -0.000027  0.000010  0.000000
  0.000000  0.000000  0.000000

  0.000046  -0.000040  0.000000
  -0.000040  0.000007  0.000000
  0.000000  0.000000  0.000000

  0.000111  -0.000008  0.000000
  -0.000008  -0.000002  0.000000
  0.000000  0.000000  0.000000

  0.000047  -0.000037  0.000000
  -0.000037  0.000018  0.000000
  0.000000  0.000000  0.000000

  -0.000084  0.000075  0.000000
  0.000075  -0.000074  0.000000
  0.000000  0.000000  0.000000

  -0.000091  0.000074  0.000000
  0.000074  -0.000072  0.000000
  0.000000  0.000000  0.000000

  -0.000023  0.000030  0.000000
  0.000030  -0.000051  0.000000
  0.000000  0.000000  0.000000

  -0.000029  0.000021  0.000000
  0.000021  -0.000029  0.000000
  0.000000  0.000000  0.000000

  0.000009  -0.000027  0.000000
  -0.000027  0.000043  0.000000
  0.000000  0.000000  0.000000

  0.000037  -0.000030  0.000000
  -0.000030  0.000003  0.000000
  0.000000  0.000000  0.000000

  -0.000076  0.000038  0.000000
  0.000038  -0.000031  0.000000
  0.000000  0.000000  0.000000

  -0.000070  0.000022  0.000000
  0.000022  -0.000025  0.000000
  0.000000  0.000000  0.000000

  -0.000005  0.000014  0.000000
  0.000014  -0.000007  0.000000
  0.000000  0.000000  0.000000

  -0.000005  0.000015  0.000000
  0.000015  -0.000007  0.000000
  0.000000  0.000000  0.000000

  -0.000005  0.000015  0.000000
  0.000015  -0.000008  0.000000
  0.000000  0.000000  0.000000

  -0.000004  0.000015  0.000000
  0.000015  -0.000008  0.000000
  0.000000  0.000000  0.000000

  -0.000229  0.000037  0.000000
  0.000037  -0.000012  0.000000
  0.000000  0.000000  0.000000

  -0.000185  0.000041  0.000000
  0.000041  -0.000022  0.000000
  0.000000  0.000000  0.000000

  -0.000004  0.000016  0.000000
  0.000016  -0.000005  0.000000
  0.000000  0.000000  0.000000

  -0.000005  0.000014  0.000000
  0.000014  -0.000005  0.000000
  0.000000  0.000000  0.000000

  0.000004  -0.000031  0.000000
  -0.000031  0.000042  0.000000
  0.000000  0.000000  0.000000

  0.000004  -0.000020  0.000000
  -0.000020  0.000031  0.000000
  0.000000  0.000000  0.000000

  -0.000179  0.000041  0.000000
  0.000041  -0.000016  0.000000
  0.000000  0.000000  0.000000

  0.000098  -0.000071  0.000000
  -0.000071  0.000038  0.000000
  0.000000  0.000000  0.000000

  0.000084  -0.000063  0.000000
  -0.000063  0.000044  0.000000
  0.000000  0.000000  0.000000

  -0.000054  0.000014  0.000000
  0.000014  -0.000021  0.000000
  0.000000  0.000000  0.000000

  -0.000004  0.000013  0.000000
  0.000013  0.000007  0.000000
  0.000000  0.000000  0.000000

  0.000080  -0.000048  0.000000
  -0.000048  0.000021  0.000000
  0.000000  0.000000  0.000000

  0.000012  -0.000031  0.000000
  -0.000031  0.000041  0.000000
  0.000000  0.000000  0.000000

  0.000012  -0.000033  0.000000
  -0.000033  0.000037  0.000000
  0.000000  0.000000  0.000000

  -0.000035  0.000024  0.000000
  0.000024  -0.000031  0.000000
  0.000000  0.000000  0.000000

  0.000095  -0.000055  0.000000
  -0.000055  0.000016  0.000000
  0.000000  0.000000  0.000000

  -0.000027  0.000022  0.000000
  0.000022  -0.000017  0.000000
  0.000000  0.000000  0.000000

  -0.000002  0.000015  0.000000
  0.000015  -0.000001  0.000000
  0.000000  0.000000  0.000000

  -0.000219  0.000033  0.000000
  0.000033  -0.000014  0.000000
  0.000000  0.000000  0.000000

  0.000101  -0.000070  0.000000
  -0.000070  0.000037  0.000000
  0.000000  0.000000  0.000000

  0.000138  -0.000083  0.000000
  -0.000083  0.000041  0.000000
  0.000000  0.000000  0.000000

  -0.000074  0.000009  0.000000
  0.000009  -0.000002  0.000000
  0.000000  0.000000  0.000000

  0.000068  -0.000023  0.000000
  -0.000023  -0.000004  0.000000
  0.000000  0.000000  0.000000

  -0.000027  0.000024  0.000000
  0.000024  -0.000024  0.000000
  0.000000  0.000000  0.000000

  0.000142  -0.000053  0.000000
  -0.000053  0.000008  0.000000
  0.000000  0.000000  0.000000

  0.000133  -0.000042  0.000000
  -0.000042  0.000001  0.000000
  0.000000  0.000000  0.000000

  0.000138  -0.000037  0.000000
  -0.000037  0.000005  0.000000
  0.000000  0.000000  0.000000

  0.000060  -0.000021  0.000000
  -0.000021  -0.000010  0.000000
  0.000000  0.000000  0.000000

  0.000155  -0.000020  0.000000
  -0.000020  -0.000006  0.000000
  0.000000  0.000000  0.000000

  -0.000001  0.000006  0.000000
  0.000006  0.000012  0.000000
  0.000000  0.000000  0.000000

  0.000038  -0.000021  0.000000
  -0.000021  -0.000000  0.000000
  0.000000  0.000000  0.000000

  -0.000002  0.000013  0.000000
  0.000013  -0.000002  0.000000
  0.000000  0.000000  0.000000

  0.000062  -0.000030  0.000000
  -0.000030  -0.000005  0.000000
  0.000000  0.000000  0.000000

  -0.000012  -0.000000  0.000000
  -0.000000  0.000015  0.000000
  0.000000  0.000000  0.000000

  0.000021  -0.000037  0.000000
  -0.000037  0.000047  0.000000
  0.000000  0.000000  0.000000

  -0.000012  -0.000000  0.000000
  -0.000000  0.000008  0.000000
  0.000000  0.000000  0.000000

  -0.000037  0.000032  0.000000
  0.000032  -0.000034  0.000000
  0.000000  0.000000  0.000000

  0.000036  -0.000005  0.000000
  -0.000005  -0.000005  0.000000
  0.000000  0.000000  0.000000

  -0.000054  0.000070  0.000000
  0.000070  -0.000094  0.000000
  0.000000  0.000000  0.000000

  -0.000010  -0.000001  0.000000
  -0.000001  0.000032  0.000000
  0.000000  0.000000  0.000000

  -0.000006  -0.000002  0.000000
  -0.000002  0.000031  0.000000
  0.000000  0.000000  0.000000

  0.000043  -0.000024  0.000000
  -0.000024  -0.000008  0.000000
  0.000000  0.000000  0.000000

  0.000046  -0.000020  0.000000
  -0.000020  -0.000002  0.000000
  0.000000  0.000000  0.000000

  -0.000164  0.000014  0.000000
  0.000014  -0.000006  0.000000
  0.000000  0.000000  0.000000

  -0.000065  0.000022  0.000000
  0.000022  -0.000025  0.000000
  0.000000  0.000000  0.000000

  -0.000003  -0.000006  0.000000
  -0.000006  0.000038  0.000000
  0.000000  0.000000  0.000000

  0.000082  -0.000051  0.000000
  -0.000051  0.000016  0.000000
  0.000000  0.000000  0.000000

  -0.000001  0.000005  0.000000
  0.000005  0.000018  0.000000
  0.000000  0.000000  0.000000

  -0.000214  0.000025  0.000000
  0.000025  -0.000009  0.000000
  0.000000  0.000000  0.000000

  -0.000215  0.000022  0.000000
  0.000022  -0.000011  0.000000
  0.000000  0.000000  0.000000

  -0.000022  0.000005  0.000000
  0.000005  -0.000015  0.000000
  0.000000  0.000000  0.000000

  -0.000021  0.000009  0.000000
  0.000009  -0.000007  0.000000
  0.000000  0.000000  0.000000

  0.000160  -0.000038  0.000000
  -0.000038  0.000004  0.000000
  0.000000  0.000000  0.000000

  -0.000004  0.000014  0.000000
  0.000014  -0.000009  0.000000
  0.000000  0.000000  0.000000

  0.000017  -0.000012  0.000000
  -0.000012  -0.000018  0.000000
  0.000000  0.000000  0.000000

  -0.000137  0.000026  0.000000
  0.000026  -0.000020  0.000000
  0.000000  0.000000  0.000000

  -0.000166  0.000075  0.000000
  0.000075  -0.000043  0.000000
  0.000000  0.000000  0.000000

  0.000170  -0.000051  0.000000
  -0.000051  0.000005  0.000000
  0.000000  0.000000  0.000000

  0.000145  -0.000049  0.000000
  -0.000049  0.000012  0.000000
  0.000000  0.000000  0.000000

  -0.000144  0.000096  0.000000
  0.000096  -0.000070  0.000000
  0.000000  0.000000  0.000000

  -0.000095  0.000089  0.000000
  0.000089  -0.000087  0.000000
  0.000000  0.000000  0.000000

  -0.000253  0.000016  0.000000
  0.000016  -0.000002  0.000000
  0.000000  0.000000  0.000000

  -0.000000  0.000007  0.000000
  0.000007  -0.000011  0.000000
  0.000000  0.000000  0.000000

  -0.000188  0.000086  0.000000
  0.000086  -0.000044  0.000000
  0.000000  0.000000  0.000000

  -0.000007  0.000020  0.000000
  0.000020  -0.000057  0.000000
  0.000000  0.000000  0.000000

  -0.000257  0.000021  0.000000
  0.000021  -0.000005  0.000000
  0.000000  0.000000  0.000000

  -0.000032  0.000052  0.000000
  0.000052  -0.000095  0.000000
  0.000000  0.000000  0.000000

  -0.000033  0.000056  0.000000
  0.000056  -0.000091  0.000000
  0.000000  0.000000  0.000000

  -0.000193  0.000086  0.000000
  0.000086  -0.000042  0.000000
  0.000000  0.000000  0.000000

  0.000003  0.000008  0.000000
  0.000008  -0.000004  0.000000
  0.000000  0.000000  0.000000

  -0.000053  0.000069  0.000000
  0.000069  -0.000101  0.000000
  0.000000  0.000000  0.000000

  -0.000057  0.000073  0.000000
  0.000073  -0.000093  0.000000
  0.000000  0.000000  0.000000

  -0.000255  0.000010  0.000000
  0.000010  0.000003  0.000000
  0.000000  0.000000  0.000000

  -0.000008  0.000021  0.000000
  0.000021  -0.000059  0.000000
  0.000000  0.000000  0.000000

  -0.000016  0.000032  0.000000
  0.000032  -0.000071  0.000000
  0.000000  0.000000  0.000000

  -0.000014  0.000033  0.000000
  0.000033  -0.000077  0.000000
  0.000000  0.000000  0.000000

  -0.000001  0.000007  0.000000
  0.000007  -0.000018  0.000000
  0.000000  0.000000  0.000000

  -0.000044  0.000065  0.000000
  0.000065  -0.000101  0.000000
  0.000000  0.000000  0.000000

  -0.000051  0.000067  0.000000
  0.000067  -0.000091  0.000000
  0.000000  0.000000  0.000000

  -0.000005  0.000015  0.000000
  0.000015  -0.000047  0.000000
  0.000000  0.000000  0.000000

  -0.000184  0.000085  0.000000
  0.000085  -0.000046  0.000000
  0.000000  0.000000  0.000000

  -0.000147  0.000074  0.000000
  0.000074  -0.000051  0.000000
  0.000000  0.000000  0.000000

  -0.000254  0.000024  0.000000
  0.000024  -0.000007  0.000000
  0.000000  0.000000  0.000000

  0.000001  0.000006  0.000000
  0.000006  -0.000010  0.000000
  0.000000  0.000000  0.000000

  0.000000  0.000005  0.000000
  0.000005  -0.000004  0.000000
  0.000000  0.000000  0.000000

  -0.000000  0.000007  0.000000
  0.000007  -0.000004  0.000000
  0.000000  0.000000  0.000000

  0.000001  0.000007  0.000000
  0.000007  -0.000007  0.000000
  0.000000  0.000000  0.000000

  -0.000148  0.000097  0.000000
  0.000097  -0.000068  0.000000
  0.000000  0.000000  0.000000

  -0.000197  0.000083  0.000000
  0.000083  -0.000041  0.000000
  0.000000  0.000000  0.000000

  -0.000001  0.000007  0.000000
  0.000007  -0.000024  0.000000
  0.000000  0.000000  0.000000

  -0.000002  0.000007  0.000000
  0.000007  -0.000019  0.000000
  0.000000  0.000000  0.000000

  -0.000202  0.000082  0.000000
  0.000082  -0.000037  0.000000
  0.000000  0.000000  0.000000

  -0.000006  0.000017  0.000000
  0.000017  -0.000049  0.000000
  0.000000  0.000000  0.000000

  -0.000083  0.000085  0.000000
  0.000085  -0.000093  0.000000
  0.000000  0.000000  0.000000

  -0.000038  0.000058  0.000000
  0.000058  -0.000094  0.000000
  0.000000  0.000000  0.000000

  -0.000076  0.000082  0.000000
  0.000082  -0.000093  0.000000
  0.000000  0.000000  0.000000

  -0.000068  0.000076  0.000000
  0.000076  -0.000092  0.000000
  0.000000  0.000000  0.000000

  -0.000061  0.000074  0.000000
  0.000074  -0.000097  0.000000
  0.000000  0.000000  0.000000

  -0.000032  0.000051  0.000000
  0.000051  -0.000086  0.000000
  0.000000  0.000000  0.000000

  -0.000028  0.000051  0.000000
  0.000051  -0.000094  0.000000
  0.000000  0.000000  0.000000

  -0.000151  0.000100  0.000000
  0.000100  -0.000069  0.000000
  0.000000  0.000000  0.000000

  -0.000158  0.000094  0.000000
  0.000094  -0.000058  0.000000
  0.000000  0.000000  0.000000

  -0.000117  0.000094  0.000000
  0.000094  -0.000080  0.000000
  0.000000  0.000000  0.000000

  -0.000003  -0.000003  0.000000
  -0.000003  0.000038  0.000000
  0.000000  0.000000  0.000000

  -0.000002  0.000009  0.000000
  0.000009  -0.000030  0.000000
  0.000000  0.000000  0.000000

  -0.000002  0.000010  0.000000
  0.000010  -0.000033  0.000000
  0.000000  0.000000  0.000000

  -0.000237  0.000057  0.000000
  0.000057  -0.000020  0.000000
  0.000000  0.000000  0.000000

  -0.000166  0.000096  0.000000
  0.000096  -0.000061  0.000000
  0.000000  0.000000  0.000000

  -0.000166  0.000100  0.000000
  0.000100  -0.000058  0.000000
  0.000000  0.000000  0.000000

  -0.000147  0.000082  0.000000
  0.000082  -0.000059  0.000000
  0.000000  0.000000  0.000000

  -0.000162  0.000095  0.000000
  0.000095  -0.000060  0.000000
  0.000000  0.000000  0.000000

  -0.000065  0.000080  0.000000
  0.000080  -0.000100  0.000000
  0.000000  0.000000  0.000000

  -0.000072  0.000081  0.000000
  0.000081  -0.000091  0.000000
  0.000000  0.000000  0.000000

  -0.000009  0.000023  0.000000
  0.000023  -0.000062  0.000000
  0.000000  0.000000  0.000000

  -0.000043  0.000064  0.000000
  0.000064  -0.000094  0.000000
  0.000000  0.000000  0.000000

  -0.000040  0.000061  0.000000
  0.000061  -0.000098  0.000000
  0.000000  0.000000  0.000000

  -0.000078  0.000083  0.000000
  0.000083  -0.000093  0.000000
  0.000000  0.000000  0.000000

  -0.000204  0.000082  0.000000
  0.000082  -0.000038  0.000000
  0.000000  0.000000  0.000000

  -0.000248  0.000041  0.000000
  0.000041  -0.000010  0.000000
  0.000000  0.000000  0.000000

  -0.000179  0.000091  0.000000
  0.000091  -0.000049  0.000000
  0.000000  0.000000  0.000000

  -0.000173  0.000098  0.000000
  0.000098  -0.000058  0.000000
  0.000000  0.000000  0.000000

  -0.000021  0.000040  0.000000
  0.000040  -0.000082  0.000000
  0.000000  0.000000  0.000000

  -0.000255  0.000029  0.000000
  0.000029  -0.000003  0.000000
  0.000000  0.000000  0.000000

  -0.000250  0.000039  0.000000
  0.000039  -0.000011  0.000000
  0.000000  0.000000  0.000000

  -0.000104  0.000091  0.000000
  0.000091  -0.000083  0.000000
  0.000000  0.000000  0.000000

  -0.000254  0.000026  0.000000
  0.000026  -0.000006  0.000000
  0.000000  0.000000  0.000000

  -0.000014  0.000030  0.000000
  0.000030  -0.000069  0.000000
  0.000000  0.000000  0.000000

  -0.000012  0.000027  0.000000
  0.000027  -0.000066  0.000000
  0.000000  0.000000  0.000000

  -0.000006  0.000018  0.000000
  0.000018  -0.000052  0.000000
  0.000000  0.000000  0.000000

  -0.000004  0.000013  0.000000
  0.000013  -0.000038  0.000000
  0.000000  0.000000  0.000000

  -0.000001  0.000005  0.000000
  0.000005  -0.000015  0.000000
  0.000000  0.000000  0.000000

  -0.000004  0.000014  0.000000
  0.000014  -0.000044  0.000000
  0.000000  0.000000  0.000000

  -0.000081  0.000085  0.000000
  0.000085  -0.000094  0.000000
  0.000000  0.000000  0.000000

  -0.000021  0.000040  0.000000
  0.000040  -0.000080  0.000000
  0.000000  0.000000  0.000000

  -0.000004  0.000013  0.000000
  0.000013  -0.000041  0.000000
  0.000000  0.000000  0.000000

  -0.000043  0.000060  0.000000
  0.000060  -0.000090  0.000000
  0.000000  0.000000  0.000000

  -0.000214  0.000076  0.000000
  0.000076  -0.000029  0.000000
  0.000000  0.000000  0.000000

  -0.000256  0.000022  0.000000
  0.000022  -0.000004  0.000000
  0.000000  0.000000  0.000000

  -0.000013  0.000029  0.000000
  0.000029  -0.000069  0.000000
  0.000000  0.000000  0.000000

  -0.000257  0.000017  0.000000
  0.000017  -0.000002  0.000000
  0.000000  0.000000  0.000000

  -0.000258  0.000011  0.000000
  0.000011  -0.000001  0.000000
  0.000000  0.000000  0.000000

  -0.000222  0.000018  0.000000
  0.000018  -0.000009  0.000000
  0.000000  0.000000  0.000000

  -0.000224  0.000010  0.000000
  0.000010  -0.000008  0.000000
  0.000000  0.000000  0.000000

  -0.000002  0.000009  0.000000
  0.000009  -0.000026  0.000000
  0.000000  0.000000  0.000000

  -0.000191  0.000089  0.000000
  0.000089  -0.000042  0.000000
  0.000000  0.000000  0.000000

  -0.000258  0.000018  0.000000
  0.000018  -0.000003  0.000000
  0.000000  0.000000  0.000000

  -0.000009  0.000024  0.000000
  0.000024  -0.000064  0.000000
  0.000000  0.000000  0.000000

  -0.000207  0.000079  0.000000
  0.000079  -0.000034  0.000000
  0.000000  0.000000  0.000000

  -0.000007  0.000019  0.000000
  0.000019  -0.000055  0.000000
  0.000000  0.000000  0.000000

  -0.000249  0.000039  0.000000
  0.000039  -0.000008  0.000000
  0.000000  0.000000  0.000000

  -0.000020  0.000038  0.000000
  0.000038  -0.000078  0.000000
  0.000000  0.000000  0.000000

  -0.000082  -0.000003  0.000000
  -0.000003  -0.000007  0.000000
  0.000000  0.000000  0.000000

  -0.000021  0.000014  0.000000
  0.000014  -0.000016  0.000000
  0.000000  0.000000  0.000000

  -0.000004  0.000015  0.000000
  0.000015  -0.000000  0.000000
  0.000000  0.000000  0.000000

  -0.000196  0.000054  0.000000
  0.000054  -0.000024  0.000000
  0.000000  0.000000  0.000000

  -0.000025  0.000035  0.000000
  0.000035  -0.000055  0.000000
  0.000000  0.000000  0.000000

  -0.000024  0.000030  0.000000
  0.000030  -0.000055  0.000000
  0.000000  0.000000  0.000000

  0.000062  -0.000040  0.000000
  -0.000040  0.000021  0.000000
  0.000000  0.000000  0.000000

  -0.000084  0.000074  0.000000
  0.000074  -0.000076  0.000000
  0.000000  0.000000  0.000000

  -0.000011  0.000015  0.000000
  0.000015  -0.000008  0.000000
  0.000000  0.000000  0.000000

  -0.000002  0.000012  0.000000
  0.000012  -0.000005  0.000000
  0.000000  0.000000  0.000000

  0.000009  -0.000028  0.000000
  -0.000028  0.000043  0.000000
  0.000000  0.000000  0.000000

  -0.000085  0.000031  0.000000
  0.000031  -0.000020  0.000000
  0.000000  0.000000  0.000000

  -0.000003  0.000007  0.000000
  0.000007  0.000018  0.000000
  0.000000  0.000000  0.000000

  -0.000027  0.000009  0.000000
  0.000009  -0.000005  0.000000
  0.000000  0.000000  0.000000

  -0.000020  0.000035  0.000000
  0.000035  -0.000074  0.000000
  0.000000  0.000000  0.000000

  0.000003  -0.000029  0.000000
  -0.000029  0.000042  0.000000
  0.000000  0.000000  0.000000

  -0.000002  0.000011  0.000000
  0.000011  -0.000021  0.000000
  0.000000  0.000000  0.000000

  0.000011  0.000000  0.000000
  0.000000  -0.000012  0.000000
  0.000000  0.000000  0.000000

  -0.000234  0.000063  0.000000
  0.000063  -0.000017  0.000000
  0.000000  0.000000  0.000000

  -0.000032  0.000003  0.000000
  0.000003  -0.000017  0.000000
  0.000000  0.000000  0.000000

  -0.000125  0.000079  0.000000
  0.000079  -0.000059  0.000000
  0.000000  0.000000  0.000000

  0.000195  -0.000009  0.000000
  -0.000009  0.000004  0.000000
  0.000000  0.000000  0.000000

  0.000017  -0.000037  0.000000
  -0.000037  0.000067  0.000000
  0.000000  0.000000  0.000000

  0.000066  -0.000059  0.000000
  -0.000059  0.000046  0.000000
  0.000000  0.000000  0.000000

  0.000075  -0.000036  0.000000
  -0.000036  -0.000001  0.000000
  0.000000  0.000000  0.000000

  -0.000017  0.000013  0.000000
  0.000013  0.000000  0.000000
  0.000000  0.000000  0.000000

  0.000021  -0.000039  0.000000
  -0.000039  0.000063  0.000000
  0.000000  0.000000  0.000000

  -0.000024  0.000020  0.000000
  0.000020  -0.000027  0.000000
  0.000000  0.000000  0.000000

  0.000017  -0.000035  0.000000
  -0.000035  0.000078  0.000000
  0.000000  0.000000  0.000000

  0.000210  -0.000026  0.000000
  -0.000026  0.000005  0.000000
  0.000000  0.000000  0.000000

  0.000000  -0.000001  0.000000
  -0.000001  0.000025  0.000000
  0.000000  0.000000  0.000000

  0.000069  -0.000073  0.000000
  -0.000073  0.000081  0.000000
  0.000000  0.000000  0.000000

  0.000212  -0.000017  0.000000
  -0.000017  0.000004  0.000000
  0.000000  0.000000  0.000000

  0.000195  -0.000049  0.000000
  -0.000049  0.000015  0.000000
  0.000000  0.000000  0.000000

  0.000152  -0.000078  0.000000
  -0.000078  0.000042  0.000000
  0.000000  0.000000  0.000000

  0.000139  -0.000080  0.000000
  -0.000080  0.000047  0.000000
  0.000000  0.000000  0.000000

  0.000122  -0.000083  0.000000
  -0.000083  0.000059  0.000000
  0.000000  0.000000  0.000000

  0.000098  -0.000080  0.000000
  -0.000080  0.000069  0.000000
  0.000000  0.000000  0.000000

  0.000178  -0.000065  0.000000
  -0.000065  0.000026  0.000000
  0.000000  0.000000  0.000000

  0.000203  -0.000040  0.000000
  -0.000040  0.000009  0.000000
  0.000000  0.000000  0.000000

  0.000027  -0.000046  0.000000
  -0.000046  0.000083  0.000000
  0.000000  0.000000  0.000000

  0.000062  -0.000070  0.000000
  -0.000070  0.000080  0.000000
  0.000000  0.000000  0.000000

  0.000049  -0.000063  0.000000
  -0.000063  0.000084  0.000000
  0.000000  0.000000  0.000000

  0.000009  -0.000023  0.000000
  -0.000023  0.000067  0.000000
  0.000000  0.000000  0.000000

  0.000000  0.000001  0.000000
  0.000001  0.000012  0.000000
  0.000000  0.000000  0.000000

  0.000162  -0.000073  0.000000
  -0.000073  0.000035  0.000000
  0.000000  0.000000  0.000000

  0.000217  -0.000008  0.000000
  -0.000008  0.000002  0.000000
  0.000000  0.000000  0.000000

  0.000001  -0.000006  0.000000
  -0.000006  0.000040  0.000000
  0.000000  0.000000  0.000000

  0.000001  -0.000008  0.000000
  -0.000008  0.000044  0.000000
  0.000000  0.000000  0.000000

  0.000093  -0.000081  0.000000
  -0.000081  0.000072  0.000000
  0.000000  0.000000  0.000000

  0.000190  -0.000054  0.000000
  -0.000054  0.000017  0.000000
  0.000000  0.000000  0.000000

  0.000181  -0.000061  0.000000
  -0.000061  0.000022  0.000000
  0.000000  0.000000  0.000000

  0.000004  -0.000014  0.000000
  -0.000014  0.000056  0.000000
  0.000000  0.000000  0.000000

  0.000011  -0.000030  0.000000
  -0.000030  0.000076  0.000000
  0.000000  0.000000  0.000000

  -0.000135  0.000099  0.000000
  0.000099  -0.000075  0.000000
  0.000000  0.000000  0.000000

  0.000087  -0.000073  0.000000
  -0.000073  0.000044  0.000000
  0.000000  0.000000  0.000000

  0.000079  -0.000060  0.000000
  -0.000060  0.000044  0.000000
  0.000000  0.000000  0.000000

  0.000092  -0.000072  0.000000
  -0.000072  0.000040  0.000000
  0.000000  0.000000  0.000000

  0.000059  -0.000008  0.000000
  -0.000008  -0.000012  0.000000
  0.000000  0.000000  0.000000

  -0.000217  0.000018  0.000000
  0.000018  -0.000010  0.000000
  0.000000  0.000000  0.000000

  -0.000003  -0.000008  0.000000
  -0.000008  0.000046  0.000000
  0.000000  0.000000  0.000000

  -0.000002  0.000011  0.000000
  0.000011  -0.000036  0.000000
  0.000000  0.000000  0.000000

  -0.000224  0.000014  0.000000
  0.000014  -0.000001  0.000000
  0.000000  0.000000  0.000000

  -0.000135  0.000098  0.000000
  0.000098  -0.000080  0.000000
  0.000000  0.000000  0.000000

  -0.000046  0.000064  0.000000
  0.000064  -0.000101  0.000000
  0.000000  0.000000  0.000000

  -0.000208  0.000079  0.000000
  0.000079  -0.000040  0.000000
  0.000000  0.000000  0.000000

  -0.000003  0.000008  0.000000
  0.000008  -0.000037  0.000000
  0.000000  0.000000  0.000000

  -0.000142  0.000095  0.000000
  0.000095  -0.000075  0.000000
  0.000000  0.000000  0.000000

  -0.000122  0.000092  0.000000
  0.000092  -0.000076  0.000000
  0.000000  0.000000  0.000000

  -0.000216  0.000079  0.000000
  0.000079  -0.000036  0.000000
  0.000000  0.000000  0.000000

  -0.000096  0.000089  0.000000
  0.000089  -0.000092  0.000000
  0.000000  0.000000  0.000000

  -0.000105  0.000092  0.000000
  0.000092  -0.000090  0.000000
  0.000000  0.000000  0.000000

  -0.000242  0.000054  0.000000
  0.000054  -0.000021  0.000000
  0.000000  0.000000  0.000000

  -0.000237  0.000061  0.000000
  0.000061  -0.000024  0.000000
  0.000000  0.000000  0.000000

  -0.000225  0.000066  0.000000
  0.000066  -0.000029  0.000000
  0.000000  0.000000  0.000000

  -0.000121  0.000096  0.000000
  0.000096  -0.000083  0.000000
  0.000000  0.000000  0.000000

  -0.000232  0.000066  0.000000
  0.000066  -0.000027  0.000000
  0.000000  0.000000  0.000000

  -0.000222  0.000073  0.000000
  0.000073  -0.000032  0.000000
  0.000000  0.000000  0.000000

  -0.000008  -0.000005  0.000000
  -0.000005  0.000039  0.000000
  0.000000  0.000000  0.000000

  -0.000099  0.000077  0.000000
  0.000077  -0.000071  0.000000
  0.000000  0.000000  0.000000

  -0.000006  0.000014  0.000000
  0.000014  -0.000041  0.000000
  0.000000  0.000000  0.000000

  -0.000018  -0.000002  0.000000
  -0.000002  0.000016  0.000000
  0.000000  0.000000  0.000000

  -0.000239  0.000057  0.000000
  0.000057  -0.000013  0.000000
  0.000000  0.000000  0.000000

  -0.000003  0.000011  0.000000
  0.000011  0.000004  0.000000
  0.000000  0.000000  0.000000

  0.000130  -0.000032  0.000000
  -0.000032  0.000003  0.000000
  0.000000  0.000000  0.000000

  0.000003  -0.000021  0.000000
  -0.000021  0.000031  0.000000
  0.000000  0.000000  0.000000

  -0.000133  0.000001  0.000000
  0.000001  -0.000007  0.000000
  0.000000  0.000000  0.000000

  0.000067  -0.000069  0.000000
  -0.000069  0.000051  0.000000
  0.000000  0.000000  0.000000

  0.000177  -0.000015  0.000000
  -0.000015  -0.000001  0.000000
  0.000000  0.000000  0.000000

  0.000158  -0.000003  0.000000
  -0.000003  -0.000001  0.000000
  0.000000  0.000000  0.000000

  0.000028  -0.000044  0.000000
  -0.000044  0.000062  0.000000
  0.000000  0.000000  0.000000

  -0.000004  0.000004  0.000000
  0.000004  0.000026  0.000000
  0.000000  0.000000  0.000000

  -0.000045  0.000019  0.000000
  0.000019  -0.000020  0.000000
  0.000000  0.000000  0.000000

  -0.000031  0.000029  0.000000
  0.000029  -0.000041  0.000000
  0.000000  0.000000  0.000000

  -0.000081  0.000073  0.000000
  0.000073  -0.000078  0.000000
  0.000000  0.000000  0.000000

  -0.000004  0.000014  0.000000
  0.000014  0.000004  0.000000
  0.000000  0.000000  0.000000

  -0.000217  0.000078  0.000000
  0.000078  -0.000030  0.000000
  0.000000  0.000000  0.000000

  -0.000137  0.000099  0.000000
  0.000099  -0.000073  0.000000
  0.000000  0.000000  0.000000

  -0.000047  0.000058  0.000000
  0.000058  -0.000086  0.000000
  0.000000  0.000000  0.000000

  -0.000015  0.000009  0.000000
  0.000009  0.000008  0.000000
  0.000000  0.000000  0.000000

  -0.000217  0.000039  0.000000
  0.000039  -0.000012  0.000000
  0.000000  0.000000  0.000000

  0.000100  -0.000059  0.000000
  -0.000059  0.000028  0.000000
  0.000000  0.000000  0.000000

  -0.000003  0.000014  0.000000
  0.000014  0.000001  0.000000
  0.000000  0.000000  0.000000

  -0.000023  0.000027  0.000000
  0.000027  -0.000039  0.000000
  0.000000  0.000000  0.000000

  -0.000218  0.000076  0.000000
  0.000076  -0.000028  0.000000
  0.000000  0.000000  0.000000

  -0.000004  0.000010  0.000000
  0.000010  0.000001  0.000000
  0.000000  0.000000  0.000000

  -0.000010  -0.000007  0.000000
  -0.000007  0.000030  0.000000
  0.000000  0.000000  0.000000

  -0.000013  0.000001  0.000000
  0.000001  0.000028  0.000000
  0.000000  0.000000  0.000000

  0.000180  -0.000063  0.000000
  -0.000063  0.000013  0.000000
  0.000000  0.000000  0.000000

  0.000097  -0.000083  0.000000
  -0.000083  0.000061  0.000000
  0.000000  0.000000  0.000000

  -0.000003  0.000007  0.000000
  0.000007  -0.000021  0.000000
  0.000000  0.000000  0.000000

  0.000004  -0.000015  0.000000
  -0.000015  0.000058  0.000000
  0.000000  0.000000  0.000000

  -0.000004  0.000014  0.000000
  0.000014  0.000000  0.000000
  0.000000  0.000000  0.000000

  0.000080  -0.000077  0.000000
  -0.000077  0.000056  0.000000
  0.000000  0.000000  0.000000

  -0.000001  -0.000015  0.000000
  -0.000015  0.000050  0.000000
  0.000000  0.000000  0.000000

  -0.000003  -0.000008  0.000000
  -0.000008  0.000046  0.000000
  0.000000  0.000000  0.000000

  0.000012  -0.000005  0.000000
  -0.000005  -0.000000  0.000000
  0.000000  0.000000  0.000000

  -0.000002  0.000015  0.000000
  0.000015  0.000000  0.000000
  0.000000  0.000000  0.000000

  0.000013  -0.000037  0.000000
  -0.000037  0.000078  0.000000
  0.000000  0.000000  0.000000

  0.000017  -0.000042  0.000000
  -0.000042  0.000076  0.000000
  0.000000  0.000000  0.000000

  -0.000004  0.000013  0.000000
  0.000013  -0.000011  0.000000
  0.000000  0.000000  0.000000

  -0.000206  0.000082  0.000000
  0.000082  -0.000033  0.000000
  0.000000  0.000000  0.000000

  -0.000207  0.000001  0.000000
  0.000001  -0.000006  0.000000
  0.000000  0.000000  0.000000

  -0.000003  0.000012  0.000000
  0.000012  -0.000013  0.000000
  0.000000  0.000000  0.000000

  -0.000106  0.000093  0.000000
  0.000093  -0.000084  0.000000
  0.000000  0.000000  0.000000

  0.000170  -0.000016  0.000000
  -0.000016  -0.000011  0.000000
  0.000000  0.000000  0.000000

  0.000057  -0.000073  0.000000
  -0.000073  0.000080  0.000000
  0.000000  0.000000  0.000000

  -0.000224  0.000069  0.000000
  0.000069  -0.000022  0.000000
  0.000000  0.000000  0.000000

  -0.000097  0.000091  0.000000
  0.000091  -0.000088  0.000000
  0.000000  0.000000  0.000000
POINT_DATA 4063
VECTORS displacements double
  0.000000  0.000000  0.000000
  0.000007  -0.000001  0.000000
  0.000000  0.000000  0.000000
  0.000007  -0.000001  0.000000
  0.000013  -0.000002  0.000000
  0.000000  0.000000  0.000000
  0.000014  -0.000002  0.000000
  0.000019  -0.000003  0.000000
  0.000011  -0.000001  0.000000
  0.000000  0.000000  0.000000
  0.000021  -0.000004  0.000000
  0.000025  -0.000004  0.000000
  0.000006  -0.000001  0.000000
  0.000000  0.000000  0.000000
  0.000027  -0.000005  0.000000
  0.000031  -0.000006  0.000000
  0.000024  -0.000005  0.000000
  0.000005  -0.000001  0.000000
  0.000015  -0.000003  0.000000
  0.000032  -0.000007  0.000000
  0.000000  0.000000  0.000000
  0.000037  -0.000008  0.000000
  0.000039  -0.000010  0.000000
  0.000006  -0.000001  0.000000
  0.000043  -0.000011  0.000000
  0.000036  -0.000010  0.000000
  0.000000  0.000000  0.000000
  0.000029  -0.000008  0.000000
  0.000021  -0.000005  0.000000
  0.000044  -0.000012  0.000000
  0.000013  -0.000003  0.000000
  0.000005  -0.000001  0.000000
  0.000049  -0.000014  0.000000
  0.000000  0.000000  0.000000
  0.000050  -0.000016  0.000000
  0.000038  -0.000013  0.000000
  0.000029  -0.000010  0.000000
  0.000055  -0.000017  0.000000
  0.000049  -0.000016  0.000000
  0.000055  -0.000018  0.000000
  0.000005  -0.000001  0.000000
  0.000020  -0.000006  0.000000
  0.000061  -0.000020  0.000000
  0.000000  0.000000  0.000000
  0.000011  -0.000003  0.000000
  0.000060  -0.000022  0.000000
  0.000038  -0.000015  0.000000
  0.000047  -0.000019  0.000000
  0.000029  -0.000012  0.000000
  0.000067  -0.000024  0.000000
  0.000005  -0.000001  0.000000
  0.000058  -0.000023  0.000000
  0.000066  -0.000026  0.000000
  0.000022  -0.000009  0.000000
  0.000000  0.000000  0.000000
  0.000015  -0.000006  0.000000
  0.000073  -0.000028  0.000000
  0.000009  -0.000003  0.000000
  0.000046  -0.000022  0.000000
  0.000036  -0.000018  0.000000
  0.000072  -0.000030  0.000000
  0.000056  -0.000027  0.000000
  0.000004  -0.000001  0.000000
  0.000028  -0.000014  0.000000
  0.000067  -0.000031  0.000000
  0.000078  -0.000033  0.000000
  0.000000  0.000000  0.000000
  0.000077  -0.000035  0.000000
  0.000019  -0.000010  0.000000
  0.000011  -0.000005  0.000000
  0.000084  -0.000037  0.000000
  0.000043  -0.000026  0.000000
  0.000007  -0.000003  0.000000
  0.000054  -0.000030  0.000000
  0.000034  -0.000021  0.000000
  0.000003  -0.000001  0.000000
  0.000065  -0.000036  0.000000
  0.000083  -0.000040  0.000000
  0.000026  -0.000017  0.000000
  0.000090  -0.000042  0.000000
  0.000000  0.000000  0.000000
  0.000081  -0.000042  0.000000
  0.000013  -0.000009  0.000000
  0.000088  -0.000044  0.000000
  0.000019  -0.000014  0.000000
  0.000008  -0.000005  0.000000
  0.000051  -0.000034  0.000000
  0.000040  -0.000029  0.000000
  0.000004  -0.000002  0.000000
  0.000062  -0.000040  0.000000
  0.000095  -0.000048  0.000000
  0.000002  -0.000001  0.000000
  0.000031  -0.000024  0.000000
  0.000093  -0.000050  0.000000
  0.000000  0.000000  0.000000
  0.000101  -0.000053  0.000000
  0.000014  -0.000013  0.000000
  0.000008  -0.000008  0.000000
  0.000019  -0.000019  0.000000
  0.000078  -0.000051  0.000000
  0.000005  -0.000004  0.000000
  0.000099  -0.000056  0.000000
  0.000001  -0.000001  0.000000
  0.000094  -0.000057  0.000000
  0.000043  -0.000038  0.000000
  0.000106  -0.000059  0.000000
  0.000055  -0.000045  0.000000
  0.000103  -0.000061  0.000000
  0.000031  -0.000033  0.000000
  0.000073  -0.000055  0.000000
  0.000022  -0.000027  0.000000
  0.000000  0.000000  0.000000
  0.000006  -0.000011  0.000000
  0.000112  -0.000066  0.000000
  0.000014  -0.000021  0.000000
  0.000087  -0.000063  0.000000
  0.000108  -0.000068  0.000000
  0.000001  -0.000003  0.000000
  -0.000000  -0.000001  0.000000
  0.000002  -0.000007  0.000000
  0.000117  -0.000072  0.000000
  0.000034  -0.000042  0.000000
  0.000045  -0.000049  0.000000
  0.000007  -0.000017  0.000000
  0.000024  -0.000036  0.000000
  0.000104  -0.000072  0.000000
  0.000057  -0.000057  0.000000
  0.000114  -0.000075  0.000000
  0.000080  -0.000068  0.000000
  0.000016  -0.000030  0.000000
  0.000070  -0.000065  0.000000
  0.000000  0.000000  0.000000
  0.000002  -0.000013  0.000000
  0.000122  -0.000079  0.000000
  0.000008  -0.000024  0.000000
  -0.000002  -0.000005  0.000000
  -0.000001  -0.000002  0.000000
  0.000095  -0.000076  0.000000
  0.000118  -0.000082  0.000000
  0.000037  -0.000053  0.000000
  0.000027  -0.000046  0.000000
  0.000049  -0.000061  0.000000
  -0.000001  -0.000000  0.000000
  -0.000002  -0.000009  0.000000
  0.000128  -0.000086  0.000000
  0.000001  -0.000019  0.000000
  0.000017  -0.000039  0.000000
  0.000062  -0.000069  0.000000
  0.000123  -0.000089  0.000000
  0.000087  -0.000082  0.000000
  0.000114  -0.000088  0.000000
  0.000009  -0.000032  0.000000
  0.000076  -0.000078  0.000000
  0.000000  0.000000  0.000000
  -0.000004  -0.000014  0.000000
  0.000133  -0.000094  0.000000
  -0.000005  -0.000007  0.000000
  -0.000005  -0.000003  0.000000
  0.000001  -0.000026  0.000000
  0.000128  -0.000097  0.000000
  0.000029  -0.000057  0.000000
  0.000040  -0.000065  0.000000
  0.000018  -0.000049  0.000000
  0.000053  -0.000074  0.000000
  -0.000002  -0.000000  0.000000
  -0.000007  -0.000011  0.000000
  -0.000005  -0.000021  0.000000
  0.000009  -0.000042  0.000000
  0.000138  -0.000102  0.000000
  0.000067  -0.000083  0.000000
  0.000107  -0.000098  0.000000
  -0.000005  -0.000001  0.000000
  0.000001  -0.000035  0.000000
  0.000134  -0.000106  0.000000
  0.000082  -0.000093  0.000000
  0.000000  0.000000  0.000000
  -0.000009  -0.000007  0.000000
  -0.000010  -0.000017  0.000000
  0.000126  -0.000108  0.000000
  0.000143  -0.000110  0.000000
  -0.000006  -0.000029  0.000000
  0.000031  -0.000070  0.000000
  0.000097  -0.000103  0.000000
  0.000019  -0.000061  0.000000
  0.000043  -0.000079  0.000000
  0.000138  -0.000113  0.000000
  -0.000009  -0.000004  0.000000
  0.000009  -0.000053  0.000000
  -0.000004  -0.000000  0.000000
  0.000057  -0.000089  0.000000
  -0.000000  -0.000045  0.000000
  -0.000014  -0.000012  0.000000
  -0.000013  -0.000024  0.000000
  0.000071  -0.000098  0.000000
  0.000148  -0.000119  0.000000
  0.000114  -0.000114  0.000000
  -0.000008  -0.000001  0.000000
  0.000000  0.000000  0.000000
  -0.000009  -0.000039  0.000000
  0.000142  -0.000122  0.000000
  0.000087  -0.000109  0.000000
  -0.000017  -0.000019  0.000000
  -0.000016  -0.000008  0.000000
  0.000020  -0.000074  0.000000
  0.000032  -0.000084  0.000000
  0.000152  -0.000128  0.000000
  -0.000015  -0.000032  0.000000
  0.000008  -0.000066  0.000000
  0.000046  -0.000094  0.000000
  0.000134  -0.000127  0.000000
  0.000103  -0.000120  0.000000
  -0.000005  -0.000000  0.000000
  -0.000002  -0.000057  0.000000
  0.000147  -0.000131  0.000000
  0.000060  -0.000104  0.000000
  -0.000013  -0.000003  0.000000
  -0.000020  -0.000014  0.000000
  -0.000011  -0.000049  0.000000
  0.000076  -0.000115  0.000000
  -0.000021  -0.000026  0.000000
  0.000157  -0.000137  0.000000
  0.000121  -0.000131  0.000000
  0.000000  0.000000  0.000000
  -0.000018  -0.000042  0.000000
  -0.000010  -0.000001  0.000000
  0.000151  -0.000140  0.000000
  0.000092  -0.000126  0.000000
  0.000020  -0.000089  0.000000
  0.000008  -0.000079  0.000000
  0.000033  -0.000099  0.000000
  -0.000026  -0.000021  0.000000
  -0.000019  -0.000007  0.000000
  -0.000003  -0.000070  0.000000
  -0.000023  -0.000010  0.000000
  -0.000005  -0.000000  0.000000
  0.000048  -0.000110  0.000000
  0.000162  -0.000146  0.000000
  -0.000025  -0.000035  0.000000
  0.000142  -0.000145  0.000000
  0.000109  -0.000138  0.000000
  -0.000013  -0.000061  0.000000
  0.000063  -0.000121  0.000000
  0.000156  -0.000149  0.000000
  -0.000017  -0.000003  0.000000
  -0.000022  -0.000053  0.000000
  0.000000  0.000000  0.000000
  -0.000029  -0.000016  0.000000
  -0.000031  -0.000029  0.000000
  0.000079  -0.000133  0.000000
  -0.000012  -0.000001  0.000000
  0.000128  -0.000150  0.000000
  0.000166  -0.000156  0.000000
  -0.000030  -0.000045  0.000000
  0.000020  -0.000105  0.000000
  0.000007  -0.000094  0.000000
  0.000097  -0.000145  0.000000
  0.000159  -0.000160  0.000000
  -0.000006  0.000000  0.000000
  -0.000005  -0.000084  0.000000
  0.000034  -0.000116  0.000000
  -0.000016  -0.000074  0.000000
  -0.000035  -0.000023  0.000000
  0.000050  -0.000127  0.000000
  -0.000031  -0.000012  0.000000
  -0.000025  -0.000006  0.000000
  0.000147  -0.000162  0.000000
  -0.000036  -0.000038  0.000000
  0.000171  -0.000166  0.000000
  -0.000026  -0.000065  0.000000
  0.000115  -0.000157  0.000000
  0.000000  0.000000  0.000000
  0.000066  -0.000139  0.000000
  -0.000019  -0.000003  0.000000
  0.000163  -0.000170  0.000000
  -0.000035  -0.000056  0.000000
  -0.000041  -0.000031  0.000000
  -0.000038  -0.000018  0.000000
  0.000083  -0.000152  0.000000
  0.000134  -0.000170  0.000000
  0.000175  -0.000177  0.000000
  -0.000005  0.000000  0.000000
  0.000006  -0.000110  0.000000
  -0.000042  -0.000048  0.000000
  0.000020  -0.000122  0.000000
  -0.000007  -0.000099  0.000000
  -0.000032  -0.000008  0.000000
  -0.000013  -0.000000  0.000000
  -0.000019  -0.000089  0.000000
  0.000035  -0.000134  0.000000
  0.000101  -0.000165  0.000000
  0.000169  -0.000181  0.000000
  -0.000030  -0.000079  0.000000
  0.000000  0.000000  0.000000
  -0.000046  -0.000026  0.000000
  0.000051  -0.000146  0.000000
  0.000155  -0.000181  0.000000
  -0.000029  -0.000005  0.000000
  -0.000040  -0.000014  0.000000
  -0.000048  -0.000041  0.000000
  -0.000040  -0.000069  0.000000
  0.000180  -0.000188  0.000000
  0.000068  -0.000159  0.000000
  0.000121  -0.000178  0.000000
  -0.000022  -0.000002  0.000000
  -0.000007  0.000000  0.000000
  0.000171  -0.000191  0.000000
  -0.000048  -0.000060  0.000000
  -0.000048  -0.000021  0.000000
  -0.000053  -0.000035  0.000000
  0.000087  -0.000172  0.000000
  -0.000010  -0.000116  0.000000
  0.000004  -0.000128  0.000000
  0.000140  -0.000191  0.000000
  -0.000023  -0.000105  0.000000
  0.000019  -0.000140  0.000000
  0.000000  0.000000  0.000000
  0.000184  -0.000199  0.000000
  -0.000056  -0.000052  0.000000
  -0.000042  -0.000010  0.000000
  0.000036  -0.000153  0.000000
  0.000106  -0.000186  0.000000
  0.000176  -0.000204  0.000000
  0.000053  -0.000166  0.000000
  -0.000058  -0.000029  0.000000
  -0.000054  -0.000074  0.000000
  -0.000006  0.000000  0.000000
  -0.000047  -0.000086  0.000000
  -0.000051  -0.000017  0.000000
  -0.000062  -0.000045  0.000000
  -0.000039  -0.000099  0.000000
  0.000165  -0.000206  0.000000
  0.000188  -0.000210  0.000000
  0.000071  -0.000180  0.000000
  0.000126  -0.000200  0.000000
  0.000000  0.000000  0.000000
  -0.000040  -0.000007  0.000000
  0.000181  -0.000214  0.000000
  -0.000063  -0.000065  0.000000
  -0.000017  -0.000000  0.000000
  -0.000012  -0.000134  0.000000
  -0.000059  -0.000023  0.000000
  0.000003  -0.000146  0.000000
  -0.000066  -0.000037  0.000000
  0.000090  -0.000194  0.000000
  0.000019  -0.000160  0.000000
  0.000146  -0.000213  0.000000
  -0.000007  0.000000  0.000000
  -0.000029  -0.000002  0.000000
  0.000192  -0.000222  0.000000
  -0.000070  -0.000056  0.000000
  0.000036  -0.000173  0.000000
  0.000110  -0.000207  0.000000
  -0.000030  -0.000128  0.000000
  -0.000052  -0.000012  0.000000
  0.000182  -0.000226  0.000000
  0.000054  -0.000187  0.000000
  -0.000064  -0.000088  0.000000
  0.000000  0.000000  0.000000
  -0.000057  -0.000101  0.000000
  -0.000070  -0.000076  0.000000
  -0.000070  -0.000031  0.000000
  -0.000048  -0.000115  0.000000
  -0.000077  -0.000048  0.000000
  0.000073  -0.000202  0.000000
  0.000195  -0.000234  0.000000
  0.000130  -0.000223  0.000000
  0.000171  -0.000232  0.000000
  -0.000064  -0.000018  0.000000
  0.000001  -0.000167  0.000000
  -0.000020  -0.000151  0.000000
  0.000187  -0.000238  0.000000
  -0.000013  0.000000  0.000000
  0.000093  -0.000217  0.000000
  0.000018  -0.000180  0.000000
  -0.000081  -0.000041  0.000000
  0.000000  0.000000  0.000000
  -0.000027  -0.000001  0.000000
  -0.000083  -0.000074  0.000000
  0.000152  -0.000237  0.000000
  -0.000075  -0.000026  0.000000
  0.000036  -0.000195  0.000000
  -0.000041  -0.000004  0.000000
  0.000199  -0.000246  0.000000
  0.000115  -0.000231  0.000000
  -0.000074  -0.000103  0.000000
  -0.000081  -0.000090  0.000000
  -0.000052  -0.000008  0.000000
  -0.000066  -0.000117  0.000000
  0.000055  -0.000210  0.000000
  0.000189  -0.000250  0.000000
  -0.000057  -0.000132  0.000000
  -0.000091  -0.000066  0.000000
  -0.000085  -0.000035  0.000000
  -0.000008  0.000000  0.000000
  0.000000  0.000000  0.000000
  -0.000046  -0.000147  0.000000
  0.000075  -0.000225  0.000000
  -0.000093  -0.000056  0.000000
  -0.000066  -0.000014  0.000000
  -0.000024  -0.000000  0.000000
  -0.000016  0.000000  0.000000
  0.000203  -0.000259  0.000000
  0.000136  -0.000247  0.000000
  -0.000018  -0.000174  0.000000
  -0.000001  -0.000188  0.000000
  -0.000031  -0.000001  0.000000
  -0.000039  -0.000003  0.000000
  0.000177  -0.000260  0.000000
  -0.000035  -0.000164  0.000000
  0.000192  -0.000263  0.000000
  0.000096  -0.000240  0.000000
  0.000017  -0.000203  0.000000
  -0.000045  -0.000004  0.000000
  -0.000097  -0.000046  0.000000
  -0.000080  -0.000021  0.000000
  -0.000053  -0.000006  0.000000
  0.000000  0.000000  0.000000
  -0.000007  0.000000  0.000000
  0.000036  -0.000218  0.000000
  -0.000014  0.000000  0.000000
  -0.000060  -0.000009  0.000000
  -0.000022  -0.000000  0.000000
  -0.000094  -0.000105  0.000000
  -0.000086  -0.000119  0.000000
  -0.000099  -0.000092  0.000000
  0.000206  -0.000272  0.000000
  -0.000029  -0.000001  0.000000
  -0.000077  -0.000134  0.000000
  -0.000105  -0.000079  0.000000
  0.000118  -0.000256  0.000000
  -0.000037  -0.000002  0.000000
  0.000056  -0.000234  0.000000
  -0.000092  -0.000029  0.000000
  -0.000069  -0.000012  0.000000
  -0.000044  -0.000003  0.000000
  -0.000067  -0.000150  0.000000
  -0.000108  -0.000068  0.000000
  0.000194  -0.000277  0.000000
  -0.000075  -0.000015  0.000000
  -0.000052  -0.000005  0.000000
  -0.000057  -0.000166  0.000000
  -0.000110  -0.000057  0.000000
  0.000078  -0.000249  0.000000
  0.000157  -0.000274  0.000000
  -0.000060  -0.000007  0.000000
  -0.000084  -0.000019  0.000000
  0.000209  -0.000286  0.000000
  0.000007  -0.000218  0.000000
  -0.000067  -0.000010  0.000000
  -0.000044  -0.000183  0.000000
  -0.000090  -0.000023  0.000000
  -0.000075  -0.000013  0.000000
  0.000100  -0.000265  0.000000
  -0.000108  -0.000040  0.000000
  0.000200  -0.000291  0.000000
  0.000182  -0.000290  0.000000
  -0.000030  -0.000201  0.000000
  -0.000113  -0.000107  0.000000
  -0.000083  -0.000016  0.000000
  -0.000106  -0.000122  0.000000
  -0.000097  -0.000136  0.000000
  0.000138  -0.000282  0.000000
  -0.000099  -0.000027  0.000000
  -0.000119  -0.000094  0.000000
  -0.000123  -0.000081  0.000000
  -0.000088  -0.000153  0.000000
  0.000030  -0.000243  0.000000
  -0.000091  -0.000020  0.000000
  0.000213  -0.000299  0.000000
  -0.000105  -0.000031  0.000000
  0.000058  -0.000259  0.000000
  -0.000078  -0.000169  0.000000
  -0.000120  -0.000050  0.000000
  -0.000126  -0.000070  0.000000
  -0.000015  -0.000221  0.000000
  -0.000099  -0.000024  0.000000
  0.000201  -0.000303  0.000000
  -0.000066  -0.000187  0.000000
  -0.000114  -0.000037  0.000000
  0.000080  -0.000276  0.000000
  0.000161  -0.000301  0.000000
  -0.000107  -0.000029  0.000000
  -0.000121  -0.000043  0.000000
  0.000216  -0.000313  0.000000
  0.000001  -0.000241  0.000000
  -0.000053  -0.000204  0.000000
  -0.000115  -0.000033  0.000000
  -0.000127  -0.000123  0.000000
  -0.000133  -0.000109  0.000000
  -0.000119  -0.000138  0.000000
  0.000205  -0.000319  0.000000
  -0.000111  -0.000155  0.000000
  0.000101  -0.000295  0.000000
  -0.000137  -0.000065  0.000000
  -0.000139  -0.000096  0.000000
  -0.000038  -0.000224  0.000000
  -0.000130  -0.000048  0.000000
  -0.000123  -0.000038  0.000000
  0.000057  -0.000280  0.000000
  0.000140  -0.000309  0.000000
  0.000017  -0.000260  0.000000
  -0.000142  -0.000083  0.000000
  0.000190  -0.000321  0.000000
  -0.000102  -0.000172  0.000000
  -0.000136  -0.000054  0.000000
  0.000218  -0.000327  0.000000
  -0.000090  -0.000189  0.000000
  -0.000131  -0.000044  0.000000
  0.000037  -0.000277  0.000000
  -0.000023  -0.000244  0.000000
  0.000209  -0.000331  0.000000
  0.000078  -0.000298  0.000000
  -0.000077  -0.000208  0.000000
  -0.000139  -0.000050  0.000000
  -0.000146  -0.000061  0.000000
  0.000164  -0.000328  0.000000
  0.000119  -0.000318  0.000000
  -0.000063  -0.000227  0.000000
  -0.000008  -0.000264  0.000000
  0.000221  -0.000342  0.000000
  -0.000155  -0.000077  0.000000
  -0.000149  -0.000125  0.000000
  -0.000142  -0.000141  0.000000
  -0.000148  -0.000056  0.000000
  -0.000153  -0.000068  0.000000
  -0.000134  -0.000157  0.000000
  -0.000125  -0.000174  0.000000
  0.000208  -0.000346  0.000000
  -0.000158  -0.000111  0.000000
  0.000099  -0.000320  0.000000
  0.000054  -0.000303  0.000000
  -0.000048  -0.000247  0.000000
  -0.000114  -0.000192  0.000000
  -0.000156  -0.000062  0.000000
  0.000010  -0.000286  0.000000
  0.000143  -0.000338  0.000000
  0.000190  -0.000349  0.000000
  -0.000163  -0.000074  0.000000
  -0.000101  -0.000211  0.000000
  0.000224  -0.000357  0.000000
  -0.000168  -0.000095  0.000000
  -0.000165  -0.000069  0.000000
  -0.000033  -0.000268  0.000000
  -0.000169  -0.000081  0.000000
  0.000211  -0.000361  0.000000
  -0.000088  -0.000231  0.000000
  0.000074  -0.000325  0.000000
  0.000029  -0.000308  0.000000
  0.000167  -0.000357  0.000000
  -0.000166  -0.000143  0.000000
  -0.000173  -0.000076  0.000000
  0.000120  -0.000347  0.000000
  -0.000159  -0.000160  0.000000
  -0.000073  -0.000251  0.000000
  -0.000173  -0.000128  0.000000
  -0.000016  -0.000290  0.000000
  -0.000149  -0.000177  0.000000
  0.000226  -0.000372  0.000000
  -0.000179  -0.000089  0.000000
  -0.000139  -0.000195  0.000000
  -0.000182  -0.000084  0.000000
  -0.000127  -0.000214  0.000000
  -0.000058  -0.000271  0.000000
  0.000095  -0.000348  0.000000
  0.000049  -0.000330  0.000000
  0.000215  -0.000378  0.000000
  -0.000186  -0.000096  0.000000
  -0.000186  -0.000115  0.000000
  0.000002  -0.000312  0.000000
  0.000145  -0.000367  0.000000
  -0.000114  -0.000234  0.000000
  0.000197  -0.000381  0.000000
  0.000228  -0.000387  0.000000
  -0.000191  -0.000091  0.000000
  -0.000041  -0.000294  0.000000
  -0.000194  -0.000105  0.000000
  -0.000100  -0.000253  0.000000
  0.000216  -0.000390  0.000000
  0.000069  -0.000354  0.000000
  -0.000183  -0.000162  0.000000
  0.000022  -0.000335  0.000000
  -0.000191  -0.000146  0.000000
  -0.000175  -0.000180  0.000000
  -0.000199  -0.000100  0.000000
  -0.000165  -0.000198  0.000000
  -0.000085  -0.000275  0.000000
  0.000121  -0.000377  0.000000
  -0.000200  -0.000131  0.000000
  -0.000024  -0.000316  0.000000
  -0.000203  -0.000114  0.000000
  0.000231  -0.000403  0.000000
  -0.000154  -0.000217  0.000000
  0.000171  -0.000394  0.000000
  -0.000208  -0.000108  0.000000
  -0.000141  -0.000236  0.000000
  0.000214  -0.000407  0.000000
  -0.000069  -0.000297  0.000000
  0.000092  -0.000377  0.000000
  0.000042  -0.000358  0.000000
  -0.000211  -0.000123  0.000000
  -0.000127  -0.000257  0.000000
  -0.000005  -0.000340  0.000000
  0.000147  -0.000399  0.000000
  -0.000206  -0.000162  0.000000
  -0.000217  -0.000117  0.000000
  0.000232  -0.000419  0.000000
  -0.000112  -0.000278  0.000000
  -0.000052  -0.000321  0.000000
  -0.000220  -0.000132  0.000000
  -0.000202  -0.000182  0.000000
  -0.000218  -0.000148  0.000000
  -0.000192  -0.000200  0.000000
  0.000218  -0.000423  0.000000
  0.000064  -0.000382  0.000000
  0.000015  -0.000363  0.000000
  0.000115  -0.000402  0.000000
  -0.000181  -0.000220  0.000000
  -0.000227  -0.000126  0.000000
  0.000196  -0.000425  0.000000
  -0.000097  -0.000301  0.000000
  -0.000169  -0.000239  0.000000
  -0.000033  -0.000344  0.000000
  0.000234  -0.000436  0.000000
  -0.000232  -0.000143  0.000000
  -0.000156  -0.000261  0.000000
  0.000221  -0.000439  0.000000
  -0.000236  -0.000135  0.000000
  -0.000081  -0.000323  0.000000
  0.000036  -0.000388  0.000000
  0.000087  -0.000408  0.000000
  0.000171  -0.000435  0.000000
  -0.000143  -0.000282  0.000000
  -0.000232  -0.000167  0.000000
  0.000138  -0.000427  0.000000
  -0.000014  -0.000368  0.000000
  -0.000238  -0.000152  0.000000
  0.000236  -0.000452  0.000000
  -0.000221  -0.000204  0.000000
  -0.000063  -0.000347  0.000000
  -0.000245  -0.000145  0.000000
  -0.000126  -0.000304  0.000000
  -0.000211  -0.000224  0.000000
  0.000221  -0.000456  0.000000
  0.000059  -0.000413  0.000000
  -0.000198  -0.000244  0.000000
  0.000007  -0.000393  0.000000
  0.000111  -0.000433  0.000000
  -0.000250  -0.000163  0.000000
  -0.000186  -0.000263  0.000000
  -0.000111  -0.000328  0.000000
  0.000198  -0.000458  0.000000
  -0.000044  -0.000371  0.000000
  -0.000255  -0.000155  0.000000
  0.000237  -0.000469  0.000000
  -0.000172  -0.000286  0.000000
  -0.000257  -0.000173  0.000000
  -0.000093  -0.000352  0.000000
  0.000222  -0.000473  0.000000
  0.000029  -0.000418  0.000000
  0.000082  -0.000439  0.000000
  -0.000252  -0.000194  0.000000
  -0.000157  -0.000308  0.000000
  -0.000265  -0.000165  0.000000
  0.000172  -0.000467  0.000000
  -0.000023  -0.000397  0.000000
  0.000135  -0.000460  0.000000
  -0.000241  -0.000226  0.000000
  -0.000140  -0.000331  0.000000
  0.000239  -0.000487  0.000000
  -0.000074  -0.000376  0.000000
  -0.000269  -0.000185  0.000000
  -0.000234  -0.000247  0.000000
  -0.000274  -0.000176  0.000000
  -0.000220  -0.000267  0.000000
  0.000052  -0.000445  0.000000
  -0.000002  -0.000422  0.000000
  0.000225  -0.000493  0.000000
  0.000106  -0.000466  0.000000
  -0.000203  -0.000289  0.000000
  -0.000124  -0.000356  0.000000
  -0.000054  -0.000402  0.000000
  -0.000276  -0.000195  0.000000
  0.000205  -0.000497  0.000000
  -0.000188  -0.000312  0.000000
  0.000240  -0.000504  0.000000
  -0.000284  -0.000187  0.000000
  -0.000271  -0.000218  0.000000
  -0.000105  -0.000381  0.000000
  0.000225  -0.000507  0.000000
  -0.000172  -0.000335  0.000000
  0.000020  -0.000450  0.000000
  0.000076  -0.000472  0.000000
  -0.000033  -0.000428  0.000000
  0.000131  -0.000494  0.000000
  -0.000288  -0.000208  0.000000
  -0.000294  -0.000198  0.000000
  -0.000154  -0.000360  0.000000
  -0.000085  -0.000407  0.000000
  0.000241  -0.000522  0.000000
  -0.000267  -0.000253  0.000000
  -0.000252  -0.000273  0.000000
  -0.000236  -0.000293  0.000000
  0.000224  -0.000526  0.000000
  0.000044  -0.000477  0.000000
  -0.000296  -0.000218  0.000000
  -0.000011  -0.000455  0.000000
  0.000100  -0.000498  0.000000
  -0.000221  -0.000316  0.000000
  0.000171  -0.000518  0.000000
  -0.000137  -0.000386  0.000000
  -0.000305  -0.000210  0.000000
  -0.000065  -0.000432  0.000000
  -0.000203  -0.000339  0.000000
  0.000242  -0.000540  0.000000
  -0.000304  -0.000232  0.000000
  -0.000118  -0.000411  0.000000
  -0.000187  -0.000364  0.000000
  0.000202  -0.000540  0.000000
  0.000142  -0.000527  0.000000
  0.000069  -0.000504  0.000000
  0.000012  -0.000483  0.000000
  0.000227  -0.000545  0.000000
  -0.000315  -0.000222  0.000000
  -0.000043  -0.000459  0.000000
  -0.000250  -0.000319  0.000000
  -0.000286  -0.000279  0.000000
  -0.000269  -0.000299  0.000000
  -0.000304  -0.000255  0.000000
  -0.000171  -0.000388  0.000000
  -0.000098  -0.000438  0.000000
  0.000242  -0.000558  0.000000
  -0.000316  -0.000244  0.000000
  -0.000325  -0.000234  0.000000
  -0.000237  -0.000345  0.000000
  0.000225  -0.000562  0.000000
  0.000037  -0.000511  0.000000
  -0.000021  -0.000488  0.000000
  -0.000152  -0.000414  0.000000
  0.000094  -0.000533  0.000000
  0.000170  -0.000554  0.000000
  -0.000222  -0.000367  0.000000
  -0.000076  -0.000465  0.000000
  -0.000327  -0.000255  0.000000
  0.000242  -0.000577  0.000000
  -0.000336  -0.000247  0.000000
  -0.000132  -0.000442  0.000000
  -0.000298  -0.000306  0.000000
  -0.000205  -0.000393  0.000000
  0.000139  -0.000563  0.000000
  0.000062  -0.000539  0.000000
  0.000004  -0.000517  0.000000
  0.000227  -0.000583  0.000000
  -0.000284  -0.000328  0.000000
  -0.000055  -0.000492  0.000000
  0.000205  -0.000583  0.000000
  -0.000272  -0.000346  0.000000
  -0.000337  -0.000270  0.000000
  -0.000186  -0.000419  0.000000
  -0.000111  -0.000469  0.000000
  -0.000347  -0.000259  0.000000
  0.000243  -0.000596  0.000000
  -0.000257  -0.000371  0.000000
  -0.000330  -0.000296  0.000000
  0.000228  -0.000599  0.000000
  0.000029  -0.000546  0.000000
  -0.000167  -0.000445  0.000000
  0.000088  -0.000569  0.000000
  -0.000031  -0.000522  0.000000
  0.000168  -0.000591  0.000000
  -0.000239  -0.000397  0.000000
  -0.000090  -0.000498  0.000000
  -0.000358  -0.000272  0.000000
  -0.000350  -0.000284  0.000000
  -0.000320  -0.000329  0.000000
  0.000243  -0.000615  0.000000
  -0.000147  -0.000474  0.000000
  -0.000222  -0.000424  0.000000
  -0.000306  -0.000354  0.000000
  0.000224  -0.000619  0.000000
  0.000055  -0.000576  0.000000
  -0.000006  -0.000553  0.000000
  -0.000358  -0.000297  0.000000
  -0.000067  -0.000527  0.000000
  -0.000369  -0.000286  0.000000
  -0.000294  -0.000374  0.000000
  0.000198  -0.000621  0.000000
  -0.000204  -0.000450  0.000000
  0.000125  -0.000605  0.000000
  -0.000273  -0.000398  0.000000
  -0.000125  -0.000502  0.000000
  0.000243  -0.000635  0.000000
  0.000224  -0.000639  0.000000
  -0.000183  -0.000478  0.000000
  0.000020  -0.000583  0.000000
  -0.000338  -0.000351  0.000000
  -0.000359  -0.000327  0.000000
  -0.000380  -0.000299  0.000000
  0.000165  -0.000629  0.000000
  0.000082  -0.000606  0.000000
  -0.000043  -0.000558  0.000000
  -0.000373  -0.000311  0.000000
  -0.000259  -0.000427  0.000000
  -0.000102  -0.000533  0.000000
  0.000242  -0.000655  0.000000
  -0.000162  -0.000507  0.000000
  -0.000241  -0.000456  0.000000
  -0.000330  -0.000381  0.000000
  -0.000381  -0.000323  0.000000
  -0.000392  -0.000313  0.000000
  -0.000310  -0.000405  0.000000
  0.000047  -0.000613  0.000000
  -0.000019  -0.000588  0.000000
  0.000225  -0.000661  0.000000
  -0.000080  -0.000562  0.000000
  0.000097  -0.000634  0.000000
  -0.000220  -0.000483  0.000000
  0.000129  -0.000646  0.000000
  -0.000140  -0.000537  0.000000
  0.000200  -0.000665  0.000000
  -0.000297  -0.000432  0.000000
  0.000242  -0.000675  0.000000
  -0.000392  -0.000340  0.000000
  -0.000403  -0.000328  0.000000
  0.000224  -0.000677  0.000000
  -0.000199  -0.000512  0.000000
  0.000011  -0.000620  0.000000
  -0.000278  -0.000459  0.000000
  -0.000056  -0.000594  0.000000
  -0.000117  -0.000568  0.000000
  0.000071  -0.000649  0.000000
  -0.000384  -0.000370  0.000000
  0.000241  -0.000695  0.000000
  -0.000258  -0.000487  0.000000
  -0.000415  -0.000342  0.000000
  -0.000177  -0.000543  0.000000
  -0.000357  -0.000409  0.000000
  -0.000407  -0.000356  0.000000
  -0.000329  -0.000438  0.000000
  0.000221  -0.000699  0.000000
  0.000111  -0.000674  0.000000
  -0.000030  -0.000625  0.000000
  -0.000092  -0.000599  0.000000
  0.000148  -0.000687  0.000000
  0.000035  -0.000654  0.000000
  -0.000238  -0.000517  0.000000
  -0.000155  -0.000572  0.000000
  -0.000318  -0.000463  0.000000
  -0.000416  -0.000370  0.000000
  -0.000427  -0.000357  0.000000
  0.000240  -0.000716  0.000000
  0.000192  -0.000713  0.000000
  -0.000216  -0.000547  0.000000
  0.000222  -0.000721  0.000000
  -0.000298  -0.000492  0.000000
  -0.000068  -0.000631  0.000000
  -0.000002  -0.000660  0.000000
  -0.000131  -0.000604  0.000000
  0.000062  -0.000688  0.000000
  -0.000425  -0.000386  0.000000
  -0.000439  -0.000372  0.000000
  -0.000370  -0.000445  0.000000
  -0.000277  -0.000522  0.000000
  0.000239  -0.000737  0.000000
  -0.000195  -0.000578  0.000000
  0.000126  -0.000715  0.000000
  -0.000359  -0.000467  0.000000
  0.000218  -0.000740  0.000000
  -0.000039  -0.000666  0.000000
  -0.000107  -0.000636  0.000000
  -0.000419  -0.000418  0.000000
  0.000025  -0.000693  0.000000
  -0.000256  -0.000553  0.000000
  -0.000452  -0.000387  0.000000
  -0.000339  -0.000496  0.000000
  -0.000170  -0.000609  0.000000
  0.000154  -0.000738  0.000000
  -0.000442  -0.000402  0.000000
  0.000090  -0.000722  0.000000
  0.000237  -0.000758  0.000000
  -0.000318  -0.000525  0.000000
  -0.000235  -0.000582  0.000000
  0.000218  -0.000764  0.000000
  -0.000079  -0.000671  0.000000
  -0.000013  -0.000700  0.000000
  -0.000146  -0.000641  0.000000
  -0.000464  -0.000403  0.000000
  -0.000452  -0.000417  0.000000
  -0.000399  -0.000472  0.000000
  0.000052  -0.000728  0.000000
  0.000193  -0.000767  0.000000
  -0.000297  -0.000557  0.000000
  0.000235  -0.000779  0.000000
  -0.000211  -0.000614  0.000000
  0.000118  -0.000756  0.000000
  -0.000382  -0.000502  0.000000
  0.000218  -0.000783  0.000000
  -0.000443  -0.000451  0.000000
  -0.000053  -0.000705  0.000000
  -0.000119  -0.000676  0.000000
  -0.000477  -0.000419  0.000000
  -0.000276  -0.000589  0.000000
  0.000013  -0.000734  0.000000
  -0.000360  -0.000531  0.000000
  -0.000468  -0.000434  0.000000
  -0.000187  -0.000647  0.000000
  0.000080  -0.000762  0.000000
  0.000234  -0.000801  0.000000
  -0.000340  -0.000561  0.000000
  -0.000253  -0.000620  0.000000
  0.000212  -0.000804  0.000000
  0.000147  -0.000790  0.000000
  -0.000490  -0.000435  0.000000
  -0.000479  -0.000448  0.000000
  -0.000093  -0.000711  0.000000
  -0.000026  -0.000740  0.000000
  -0.000161  -0.000681  0.000000
  0.000041  -0.000769  0.000000
  -0.000430  -0.000503  0.000000
  -0.000319  -0.000593  0.000000
  -0.000228  -0.000653  0.000000
  0.000232  -0.000823  0.000000
  0.000109  -0.000798  0.000000
  -0.000408  -0.000533  0.000000
  0.000183  -0.000819  0.000000
  0.000213  -0.000828  0.000000
  -0.000503  -0.000452  0.000000
  -0.000490  -0.000467  0.000000
  -0.000066  -0.000746  0.000000
  -0.000135  -0.000716  0.000000
  -0.000296  -0.000626  0.000000
  -0.000384  -0.000564  0.000000
  0.000002  -0.000775  0.000000
  -0.000203  -0.000687  0.000000
  0.000070  -0.000805  0.000000
  0.000229  -0.000845  0.000000
  -0.000362  -0.000597  0.000000
  -0.000270  -0.000659  0.000000
  0.000207  -0.000848  0.000000
  0.000140  -0.000833  0.000000
  -0.000517  -0.000468  0.000000
  -0.000486  -0.000501  0.000000
  -0.000108  -0.000751  0.000000
  -0.000507  -0.000485  0.000000
  -0.000038  -0.000782  0.000000
  -0.000178  -0.000720  0.000000
  -0.000454  -0.000539  0.000000
  0.000031  -0.000812  0.000000
  -0.000340  -0.000631  0.000000
  -0.000246  -0.000692  0.000000
  0.000227  -0.000867  0.000000
  -0.000431  -0.000570  0.000000
  0.000101  -0.000841  0.000000
  -0.000530  -0.000485  0.000000
  -0.000519  -0.000499  0.000000
  0.000208  -0.000874  0.000000
  -0.000315  -0.000663  0.000000
  -0.000080  -0.000788  0.000000
  -0.000407  -0.000601  0.000000
  -0.000150  -0.000757  0.000000
  0.000178  -0.000872  0.000000
  -0.000009  -0.000818  0.000000
  -0.000221  -0.000727  0.000000
  0.000061  -0.000848  0.000000
  0.000224  -0.000890  0.000000
  -0.000385  -0.000634  0.000000
  -0.000544  -0.000503  0.000000
  0.000204  -0.000892  0.000000
  -0.000291  -0.000698  0.000000
  0.000132  -0.000877  0.000000
  -0.000531  -0.000519  0.000000
  -0.000121  -0.000793  0.000000
  -0.000051  -0.000823  0.000000
  -0.000477  -0.000576  0.000000
  -0.000194  -0.000762  0.000000
  -0.000513  -0.000546  0.000000
  -0.000360  -0.000668  0.000000
  0.000020  -0.000855  0.000000
  -0.000264  -0.000733  0.000000
  0.000221  -0.000913  0.000000
  -0.000454  -0.000608  0.000000
  0.000092  -0.000884  0.000000
  -0.000558  -0.000520  0.000000
  -0.000547  -0.000536  0.000000
  0.000198  -0.000916  0.000000
  -0.000428  -0.000639  0.000000
  -0.000336  -0.000703  0.000000
  -0.000093  -0.000831  0.000000
  -0.000166  -0.000799  0.000000
  -0.000022  -0.000861  0.000000
  0.000167  -0.000921  0.000000
  -0.000238  -0.000769  0.000000
  0.000052  -0.000891  0.000000
  0.000218  -0.000936  0.000000
  -0.000573  -0.000538  0.000000
  -0.000407  -0.000674  0.000000
  -0.000309  -0.000737  0.000000
  -0.000558  -0.000555  0.000000
  0.000198  -0.000939  0.000000
  0.000124  -0.000922  0.000000
  -0.000496  -0.000614  0.000000
  -0.000138  -0.000836  0.000000
  -0.000065  -0.000867  0.000000
  -0.000379  -0.000707  0.000000
  -0.000211  -0.000805  0.000000
  0.000009  -0.000898  0.000000
  -0.000476  -0.000646  0.000000
  -0.000283  -0.000774  0.000000
  0.000214  -0.000959  0.000000
  0.000082  -0.000929  0.000000
  -0.000587  -0.000556  0.000000
  -0.000549  -0.000595  0.000000
  0.000190  -0.000962  0.000000
  -0.000577  -0.000574  0.000000
  -0.000450  -0.000678  0.000000
  -0.000356  -0.000744  0.000000
  -0.000109  -0.000874  0.000000
  -0.000183  -0.000842  0.000000
  -0.000034  -0.000904  0.000000
  0.000159  -0.000968  0.000000
  -0.000257  -0.000812  0.000000
  0.000040  -0.000937  0.000000
  0.000211  -0.000983  0.000000
  -0.000602  -0.000574  0.000000
  -0.000427  -0.000715  0.000000
  -0.000589  -0.000590  0.000000
  -0.000330  -0.000779  0.000000
  -0.000524  -0.000648  0.000000
  0.000114  -0.000968  0.000000
  0.000190  -0.000986  0.000000
  -0.000154  -0.000880  0.000000
  -0.000078  -0.000913  0.000000
  -0.000404  -0.000747  0.000000
  -0.000498  -0.000681  0.000000
  -0.000227  -0.000849  0.000000
  -0.000003  -0.000943  0.000000
  -0.000304  -0.000817  0.000000
  -0.000617  -0.000593  0.000000
  0.000207  -0.001007  0.000000
  0.000071  -0.000976  0.000000
  -0.000599  -0.000612  0.000000
  0.000182  -0.001009  0.000000
  -0.000476  -0.000718  0.000000
  -0.000379  -0.000784  0.000000
  0.000147  -0.001007  0.000000
  -0.000124  -0.000919  0.000000
  -0.000048  -0.000950  0.000000
  -0.000200  -0.000887  0.000000
  -0.000275  -0.000854  0.000000
  0.000028  -0.000983  0.000000
  -0.000632  -0.000612  0.000000
  0.000203  -0.001031  0.000000
  -0.000549  -0.000683  0.000000
  -0.000452  -0.000755  0.000000
  -0.000617  -0.000630  0.000000
  -0.000351  -0.000822  0.000000
  -0.000592  -0.000654  0.000000
  0.000104  -0.001014  0.000000
  0.000178  -0.001033  0.000000
  -0.000170  -0.000925  0.000000
  -0.000093  -0.000959  0.000000
  -0.000526  -0.000720  0.000000
  -0.000428  -0.000789  0.000000
  -0.000247  -0.000893  0.000000
  -0.000017  -0.000990  0.000000
  -0.000647  -0.000631  0.000000
  -0.000323  -0.000860  0.000000
  0.000198  -0.001056  0.000000
  -0.000634  -0.000647  0.000000
  0.000060  -0.001023  0.000000
  -0.000502  -0.000757  0.000000
  0.000141  -0.001051  0.000000
  0.000176  -0.001061  0.000000
  -0.000399  -0.000829  0.000000
  -0.000139  -0.000964  0.000000
  -0.000217  -0.000933  0.000000
  -0.000062  -0.000998  0.000000
  -0.000294  -0.000899  0.000000
  0.000016  -0.001030  0.000000
  -0.000663  -0.000650  0.000000
  -0.000578  -0.000723  0.000000
  -0.000477  -0.000796  0.000000
  0.000194  -0.001080  0.000000
  -0.000648  -0.000669  0.000000
  -0.000372  -0.000867  0.000000
  -0.000623  -0.000694  0.000000
  0.000092  -0.001062  0.000000
  0.000168  -0.001082  0.000000
  -0.000187  -0.000972  0.000000
  -0.000109  -0.001005  0.000000
  -0.000554  -0.000760  0.000000
  -0.000449  -0.000833  0.000000
  -0.000265  -0.000939  0.000000
  -0.000030  -0.001038  0.000000
  -0.000679  -0.000669  0.000000
  -0.000343  -0.000905  0.000000
  0.000189  -0.001105  0.000000
  0.000048  -0.001071  0.000000
  -0.000664  -0.000689  0.000000
  -0.000529  -0.000799  0.000000
  0.000165  -0.001110  0.000000
  -0.000423  -0.000873  0.000000
  -0.000156  -0.001012  0.000000
  -0.000077  -0.001045  0.000000
  -0.000235  -0.000979  0.000000
  0.000133  -0.001112  0.000000
  -0.000314  -0.000945  0.000000
  -0.000695  -0.000689  0.000000
  0.000002  -0.001079  0.000000
  -0.000501  -0.000836  0.000000
  -0.000607  -0.000764  0.000000
  0.000184  -0.001130  0.000000
  -0.000656  -0.000729  0.000000
  -0.000394  -0.000912  0.000000
  -0.000684  -0.000710  0.000000
  0.000160  -0.001131  0.000000
  -0.000203  -0.001020  0.000000
  -0.000124  -0.001054  0.000000
  -0.000474  -0.000876  0.000000
  -0.000582  -0.000804  0.000000
  -0.000284  -0.000986  0.000000
  -0.000044  -0.001087  0.000000
  -0.000712  -0.000709  0.000000
  -0.000364  -0.000950  0.000000
  0.000178  -0.001155  0.000000
  -0.000698  -0.000727  0.000000
  0.000036  -0.001121  0.000000
  0.000074  -0.001134  0.000000
  -0.000554  -0.000842  0.000000
  0.000151  -0.001157  0.000000
  -0.000445  -0.000916  0.000000
  -0.000171  -0.001061  0.000000
  -0.000253  -0.001027  0.000000
  -0.000091  -0.001095  0.000000
  -0.000335  -0.000992  0.000000
  -0.000728  -0.000729  0.000000
  -0.000011  -0.001130  0.000000
  -0.000528  -0.000882  0.000000
  -0.000636  -0.000807  0.000000
  0.000173  -0.001181  0.000000
  -0.000712  -0.000750  0.000000
  0.000113  -0.001171  0.000000
  -0.000417  -0.000957  0.000000
  -0.000686  -0.000777  0.000000
  0.000149  -0.001185  0.000000
  -0.000609  -0.000846  0.000000
  -0.000221  -0.001069  0.000000
  -0.000498  -0.000922  0.000000
  -0.000140  -0.001104  0.000000
  -0.000303  -0.001032  0.000000
  -0.000058  -0.001138  0.000000
  -0.000745  -0.000749  0.000000
  -0.000387  -0.000999  0.000000
  0.000167  -0.001207  0.000000
  0.000024  -0.001172  0.000000
  -0.000727  -0.000775  0.000000
  0.000072  -0.001189  0.000000
  -0.000582  -0.000887  0.000000
  0.000139  -0.001208  0.000000
  -0.000470  -0.000963  0.000000
  -0.000190  -0.001110  0.000000
  -0.000272  -0.001074  0.000000
  -0.000107  -0.001146  0.000000
  -0.000711  -0.000810  0.000000
  -0.000762  -0.000770  0.000000
  -0.000355  -0.001040  0.000000
  -0.000553  -0.000927  0.000000
  -0.000024  -0.001181  0.000000
  -0.000665  -0.000851  0.000000
  0.000160  -0.001233  0.000000
  -0.000746  -0.000792  0.000000
  -0.000440  -0.001005  0.000000
  0.000135  -0.001238  0.000000
  0.000104  -0.001235  0.000000
  -0.000638  -0.000892  0.000000
  -0.000240  -0.001118  0.000000
  -0.000524  -0.000968  0.000000
  -0.000157  -0.001154  0.000000
  -0.000324  -0.001081  0.000000
  -0.000073  -0.001189  0.000000
  -0.000780  -0.000791  0.000000
  -0.000408  -0.001046  0.000000
  0.000154  -0.001259  0.000000
  -0.000760  -0.000815  0.000000
  0.000045  -0.001235  0.000000
  0.000006  -0.001225  0.000000
  0.000129  -0.001259  0.000000
  -0.000608  -0.000933  0.000000
  -0.000042  -0.001216  0.000000
  -0.000494  -0.001011  0.000000
  -0.000207  -0.001162  0.000000
  -0.000292  -0.001124  0.000000
  -0.000123  -0.001198  0.000000
  -0.000743  -0.000852  0.000000
  -0.000797  -0.000812  0.000000
  -0.000376  -0.001089  0.000000
  -0.000580  -0.000973  0.000000
  0.000147  -0.001285  0.000000
  -0.000781  -0.000835  0.000000
  -0.000704  -0.000897  0.000000
  -0.000462  -0.001054  0.000000
  0.000119  -0.001286  0.000000
  -0.000257  -0.001166  0.000000
  -0.000666  -0.000937  0.000000
  -0.000549  -0.001015  0.000000
  -0.000173  -0.001206  0.000000
  -0.000010  -0.001263  0.000000
  -0.000343  -0.001132  0.000000
  -0.000815  -0.000833  0.000000
  -0.000070  -0.001250  0.000000
  0.000081  -0.001297  0.000000
  0.000140  -0.001312  0.000000
  -0.000430  -0.001097  0.000000
  -0.000798  -0.000860  0.000000
  -0.000636  -0.000979  0.000000
  0.000111  -0.001313  0.000000
  -0.000518  -0.001061  0.000000
  -0.000310  -0.001176  0.000000
  -0.000226  -0.001213  0.000000
  -0.000139  -0.001251  0.000000
  -0.000834  -0.000855  0.000000
  -0.000397  -0.001141  0.000000
  -0.000605  -0.001022  0.000000
  -0.000724  -0.000942  0.000000
  0.000133  -0.001339  0.000000
  0.000022  -0.001312  0.000000
  -0.000485  -0.001104  0.000000
  -0.000822  -0.000878  0.000000
  0.000104  -0.001339  0.000000
  -0.000790  -0.000908  0.000000
  -0.000694  -0.000984  0.000000
  -0.000274  -0.001220  0.000000
  -0.000028  -0.001315  0.000000
  -0.000191  -0.001259  0.000000
  -0.000364  -0.001184  0.000000
  -0.000852  -0.000876  0.000000
  0.000126  -0.001366  0.000000
  -0.000583  -0.001072  0.000000
  -0.000452  -0.001148  0.000000
  -0.000838  -0.000897  0.000000
  -0.000664  -0.001028  0.000000
  -0.000080  -0.001318  0.000000
  0.000101  -0.001371  0.000000
  0.000064  -0.001364  0.000000
  -0.000547  -0.001114  0.000000
  -0.000329  -0.001229  0.000000
  -0.000871  -0.000898  0.000000
  -0.000753  -0.000988  0.000000
  -0.000419  -0.001192  0.000000
  0.000118  -0.001393  0.000000
  0.000004  -0.001365  0.000000
  -0.000133  -0.001321  0.000000
  -0.000854  -0.000923  0.000000
  0.000092  -0.001392  0.000000
  -0.000511  -0.001156  0.000000
  -0.000195  -0.001307  0.000000
  -0.000826  -0.000954  0.000000
  -0.000642  -0.001082  0.000000
  -0.000723  -0.001032  0.000000
  -0.000249  -0.001293  0.000000
  -0.000294  -0.001274  0.000000
  -0.000048  -0.001367  0.000000
  -0.000384  -0.001237  0.000000
  -0.000890  -0.000920  0.000000
  0.000110  -0.001420  0.000000
  -0.000606  -0.001124  0.000000
  -0.000475  -0.001200  0.000000
  -0.000874  -0.000941  0.000000
  0.000080  -0.001420  0.000000
  -0.000101  -0.001371  0.000000
  -0.000569  -0.001166  0.000000
  0.000039  -0.001422  0.000000
  -0.000349  -0.001283  0.000000
  -0.000701  -0.001091  0.000000
  -0.000909  -0.000942  0.000000
  -0.000440  -0.001246  0.000000
  0.000101  -0.001448  0.000000
  -0.000015  -0.001418  0.000000
  -0.000177  -0.001364  0.000000
  -0.000892  -0.000968  0.000000
  0.000075  -0.001448  0.000000
  -0.000232  -0.001350  0.000000
  -0.000532  -0.001210  0.000000
  -0.000665  -0.001134  0.000000
  -0.000864  -0.001000  0.000000
  -0.000286  -0.001335  0.000000
  -0.000068  -0.001421  0.000000
  -0.000798  -0.001058  0.000000
  -0.000405  -0.001292  0.000000
  -0.000929  -0.000965  0.000000
  0.000093  -0.001476  0.000000
  -0.000628  -0.001177  0.000000
  -0.000495  -0.001254  0.000000
  -0.000912  -0.000990  0.000000
  0.000062  -0.001475  0.000000
  -0.000762  -0.001101  0.000000
  -0.000122  -0.001425  0.000000
  0.000019  -0.001470  0.000000
  -0.000453  -0.001290  0.000000
  -0.000591  -0.001221  0.000000
  -0.000725  -0.001144  0.000000
  -0.000949  -0.000987  0.000000
  -0.000214  -0.001408  0.000000
  0.000084  -0.001503  0.000000
  -0.000034  -0.001472  0.000000
  -0.000269  -0.001393  0.000000
  -0.000861  -0.001067  0.000000
  0.000053  -0.001503  0.000000
  -0.000940  -0.001011  0.000000
  -0.000553  -0.001265  0.000000
  -0.000688  -0.001188  0.000000
  -0.000325  -0.001378  0.000000
  -0.000919  -0.001037  0.000000
  -0.000089  -0.001476  0.000000
  -0.000381  -0.001363  0.000000
  -0.000824  -0.001110  0.000000
  -0.000969  -0.001010  0.000000
  0.000075  -0.001532  0.000000
  -0.000651  -0.001232  0.000000
  -0.000438  -0.001347  0.000000
  -0.000953  -0.001033  0.000000
  -0.000787  -0.001154  0.000000
  0.000045  -0.001536  0.000000
  -0.000144  -0.001479  0.000000
  -0.000495  -0.001332  0.000000
  0.000008  -0.001531  0.000000
  -0.000196  -0.001467  0.000000
  -0.000612  -0.001276  0.000000
  -0.000252  -0.001452  0.000000
  -0.000750  -0.001198  0.000000
  -0.000552  -0.001316  0.000000
  -0.000989  -0.001033  0.000000
  -0.000055  -0.001527  0.000000
  0.000065  -0.001560  0.000000
  -0.000308  -0.001437  0.000000
  -0.000968  -0.001055  0.000000
  -0.000888  -0.001119  0.000000
  0.000039  -0.001560  0.000000
  -0.000365  -0.001422  0.000000
  -0.000712  -0.001242  0.000000
  -0.000943  -0.001094  0.000000
  -0.000422  -0.001406  0.000000
  -0.000851  -0.001163  0.000000
  -0.000110  -0.001532  0.000000
  -0.001010  -0.001056  0.000000
  -0.000480  -0.001390  0.000000
  0.000055  -0.001589  0.000000
  -0.000673  -0.001287  0.000000
  -0.000994  -0.001079  0.000000
  -0.000813  -0.001208  0.000000
  0.000023  -0.001588  0.000000
  -0.000538  -0.001374  0.000000
  -0.000166  -0.001535  0.000000
  -0.000233  -0.001512  0.000000
  -0.000290  -0.001497  0.000000
  -0.000634  -0.001333  0.000000
  -0.000774  -0.001253  0.000000
  -0.000020  -0.001596  0.000000
  -0.000348  -0.001482  0.000000
  -0.001031  -0.001079  0.000000
  0.000045  -0.001617  0.000000
  -0.000916  -0.001173  0.000000
  -0.000405  -0.001466  0.000000
  0.000013  -0.001616  0.000000
  -0.001014  -0.001107  0.000000
  -0.000735  -0.001299  0.000000
  -0.000593  -0.001381  0.000000
  -0.000464  -0.001450  0.000000
  -0.000877  -0.001218  0.000000
  -0.000985  -0.001143  0.000000
  -0.000087  -0.001609  0.000000
  -0.000523  -0.001434  0.000000
  -0.001052  -0.001103  0.000000
  0.000035  -0.001646  0.000000
  -0.000838  -0.001263  0.000000
  0.000002  -0.001645  0.000000
  -0.000224  -0.001575  0.000000
  -0.001035  -0.001131  0.000000
  -0.000144  -0.001610  0.000000
  -0.000729  -0.001344  0.000000
  -0.000388  -0.001527  0.000000
  -0.000282  -0.001575  0.000000
  -0.000045  -0.001656  0.000000
  0.000024  -0.001675  0.000000
  -0.001074  -0.001126  0.000000
  -0.000581  -0.001441  0.000000
  -0.000447  -0.001511  0.000000
  -0.000943  -0.001227  0.000000
  -0.000005  -0.001677  0.000000
  -0.000640  -0.001422  0.000000
  -0.000792  -0.001335  0.000000
  -0.000507  -0.001495  0.000000
  -0.001062  -0.001156  0.000000
  -0.000904  -0.001273  0.000000
  -0.001026  -0.001188  0.000000
  -0.000344  -0.001576  0.000000
  -0.000708  -0.001402  0.000000
  -0.000111  -0.001666  0.000000
  0.000014  -0.001704  0.000000
  -0.001096  -0.001150  0.000000
  -0.000856  -0.001325  0.000000
  -0.000020  -0.001703  0.000000
  -0.000251  -0.001631  0.000000
  -0.001079  -0.001180  0.000000
  -0.000170  -0.001667  0.000000
  -0.000771  -0.001392  0.000000
  -0.001011  -0.001237  0.000000
  -0.000430  -0.001573  0.000000
  -0.000310  -0.001631  0.000000
  -0.000489  -0.001555  0.000000
  0.000002  -0.001734  0.000000
  -0.001118  -0.001174  0.000000
  -0.000563  -0.001521  0.000000
  -0.000971  -0.001283  0.000000
  -0.000632  -0.001488  0.000000
  -0.000071  -0.001718  0.000000
  -0.000688  -0.001464  0.000000
  -0.000028  -0.001736  0.000000
  -0.000835  -0.001383  0.000000
  -0.001107  -0.001204  0.000000
  -0.000930  -0.001330  0.000000
  -0.000371  -0.001633  0.000000
  -0.000138  -0.001719  0.000000
  -0.001076  -0.001236  0.000000
  -0.000750  -0.001450  0.000000
  -0.000219  -0.001698  0.000000
  -0.000009  -0.001763  0.000000
  -0.001141  -0.001198  0.000000
  -0.000043  -0.001761  0.000000
  -0.000901  -0.001373  0.000000
  -0.000279  -0.001688  0.000000
  -0.001124  -0.001228  0.000000
  -0.000456  -0.001626  0.000000
  -0.000814  -0.001441  0.000000
  -0.000680  -0.001520  0.000000
  -0.000533  -0.001603  0.000000
  -0.000021  -0.001793  0.000000
  -0.000337  -0.001689  0.000000
  -0.001164  -0.001223  0.000000
  -0.001000  -0.001346  0.000000
  -0.000733  -0.001511  0.000000
  -0.000053  -0.001796  0.000000
  -0.000644  -0.001563  0.000000
  -0.000092  -0.001787  0.000000
  -0.000406  -0.001681  0.000000
  -0.001152  -0.001254  0.000000
  -0.000596  -0.001597  0.000000
  -0.000168  -0.001777  0.000000
  -0.000796  -0.001496  0.000000
  -0.000897  -0.001435  0.000000
  -0.001116  -0.001292  0.000000
  -0.000033  -0.001823  0.000000
  -0.001068  -0.001327  0.000000
  -0.000457  -0.001678  0.000000
  -0.000315  -0.001736  0.000000
  -0.001187  -0.001247  0.000000
  -0.000061  -0.001822  0.000000
  -0.000242  -0.001767  0.000000
  -0.000518  -0.001664  0.000000
  -0.000859  -0.001489  0.000000
  -0.000988  -0.001407  0.000000
  -0.001173  -0.001282  0.000000
  -0.000717  -0.001573  0.000000
  -0.000376  -0.001739  0.000000
  -0.000567  -0.001655  0.000000
  -0.000045  -0.001853  0.000000
  -0.001210  -0.001271  0.000000
  -0.000437  -0.001724  0.000000
  -0.000080  -0.001850  0.000000
  -0.000781  -0.001555  0.000000
  -0.000627  -0.001639  0.000000
  -0.001054  -0.001388  0.000000
  -0.000911  -0.001485  0.000000
  -0.000127  -0.001848  0.000000
  -0.000291  -0.001798  0.000000
  -0.001200  -0.001300  0.000000
  -0.001121  -0.001360  0.000000
  -0.000833  -0.001547  0.000000
  -0.000192  -0.001838  0.000000
  -0.001171  -0.001328  0.000000
  -0.000692  -0.001631  0.000000
  -0.000058  -0.001883  0.000000
  -0.000500  -0.001725  0.000000
  -0.000977  -0.001469  0.000000
  -0.000343  -0.001795  0.000000
  -0.000089  -0.001881  0.000000
  -0.001234  -0.001296  0.000000
  -0.000249  -0.001837  0.000000
  -0.000754  -0.001615  0.000000
  -0.000547  -0.001719  0.000000
  -0.000403  -0.001785  0.000000
  -0.001043  -0.001449  0.000000
  -0.001217  -0.001328  0.000000
  -0.000897  -0.001542  0.000000
  -0.000610  -0.001705  0.000000
  -0.000071  -0.001913  0.000000
  -0.000107  -0.001910  0.000000
  -0.000467  -0.001783  0.000000
  -0.001258  -0.001321  0.000000
  -0.000819  -0.001610  0.000000
  -0.000155  -0.001899  0.000000
  -0.001105  -0.001432  0.000000
  -0.000664  -0.001695  0.000000
  -0.000961  -0.001531  0.000000
  -0.000309  -0.001854  0.000000
  -0.000882  -0.001589  0.000000
  -0.000216  -0.001898  0.000000
  -0.001247  -0.001354  0.000000
  -0.000730  -0.001681  0.000000
  -0.001026  -0.001511  0.000000
  -0.000084  -0.001944  0.000000
  -0.000529  -0.001785  0.000000
  -0.000372  -0.001855  0.000000
  -0.000120  -0.001940  0.000000
  -0.001210  -0.001395  0.000000
  -0.001282  -0.001346  0.000000
  -0.000279  -0.001895  0.000000
  -0.000592  -0.001767  0.000000
  -0.000796  -0.001664  0.000000
  -0.000951  -0.001580  0.000000
  -0.000436  -0.001843  0.000000
  -0.001094  -0.001495  0.000000
  -0.001265  -0.001379  0.000000
  -0.000644  -0.001760  0.000000
  -0.000098  -0.001974  0.000000
  -0.000176  -0.001955  0.000000
  -0.000864  -0.001654  0.000000
  -0.000498  -0.001842  0.000000
  -0.000131  -0.001975  0.000000
  -0.000709  -0.001745  0.000000
  -0.001307  -0.001371  0.000000
  -0.001170  -0.001471  0.000000
  -0.001020  -0.001574  0.000000
  -0.000562  -0.001828  0.000000
  -0.000926  -0.001642  0.000000
  -0.000246  -0.001957  0.000000
  -0.000349  -0.001921  0.000000
  -0.000774  -0.001733  0.000000
  -0.001074  -0.001557  0.000000
  -0.001296  -0.001404  0.000000
  -0.000112  -0.002005  0.000000
  -0.000412  -0.001908  0.000000
  -0.000148  -0.002001  0.000000
  -0.001260  -0.001447  0.000000
  -0.001332  -0.001396  0.000000
  -0.000309  -0.001956  0.000000
  -0.000625  -0.001826  0.000000
  -0.000476  -0.001893  0.000000
  -0.000841  -0.001717  0.000000
  -0.001142  -0.001536  0.000000
  -0.000993  -0.001634  0.000000
  -0.000690  -0.001809  0.000000
  -0.001315  -0.001430  0.000000
  -0.000126  -0.002036  0.000000
  -0.000908  -0.001707  0.000000
  -0.001061  -0.001616  0.000000
  -0.000541  -0.001894  0.000000
  -0.000756  -0.001794  0.000000
  -0.000160  -0.002037  0.000000
  -0.001213  -0.001523  0.000000
  -0.001357  -0.001421  0.000000
  -0.000605  -0.001876  0.000000
  -0.000205  -0.002033  0.000000
  -0.000976  -0.001691  0.000000
  -0.000390  -0.001976  0.000000
  -0.000822  -0.001783  0.000000
  -0.001132  -0.001599  0.000000
  -0.000141  -0.002067  0.000000
  -0.001346  -0.001456  0.000000
  -0.000455  -0.001961  0.000000
  -0.000173  -0.002062  0.000000
  -0.000672  -0.001877  0.000000
  -0.000889  -0.001765  0.000000
  -0.001310  -0.001499  0.000000
  -0.000509  -0.001953  0.000000
  -0.001383  -0.001447  0.000000
  -0.001189  -0.001585  0.000000
  -0.001046  -0.001682  0.000000
  -0.000291  -0.002046  0.000000
  -0.000738  -0.001859  0.000000
  -0.000571  -0.001938  0.000000
  -0.001366  -0.001481  0.000000
  -0.000156  -0.002098  0.000000
  -0.000959  -0.001755  0.000000
  -0.001253  -0.001570  0.000000
  -0.000193  -0.002094  0.000000
  -0.001113  -0.001664  0.000000
  -0.000797  -0.001848  0.000000
  -0.000356  -0.002042  0.000000
  -0.001409  -0.001472  0.000000
  -0.000639  -0.001937  0.000000
  -0.001018  -0.001744  0.000000
  -0.000866  -0.001837  0.000000
  -0.001183  -0.001649  0.000000
  -0.000426  -0.002042  0.000000
  -0.000171  -0.002130  0.000000
  -0.001388  -0.001510  0.000000
  -0.000711  -0.001924  0.000000
  -0.000246  -0.002117  0.000000
  -0.000207  -0.002130  0.000000
  -0.001088  -0.001726  0.000000
  -0.000934  -0.001820  0.000000
  -0.000492  -0.002033  0.000000
  -0.001237  -0.001634  0.000000
  -0.001435  -0.001498  0.000000
  -0.000324  -0.002107  0.000000
  -0.000779  -0.001916  0.000000
  -0.000559  -0.002025  0.000000
  -0.000186  -0.002161  0.000000
  -0.001314  -0.001608  0.000000
  -0.001159  -0.001712  0.000000
  -0.000618  -0.002006  0.000000
  -0.000219  -0.002156  0.000000
  -0.000846  -0.001896  0.000000
  -0.001425  -0.001532  0.000000
  -0.001003  -0.001811  0.000000
  -0.000685  -0.001991  0.000000
  -0.001462  -0.001524  0.000000
  -0.001397  -0.001573  0.000000
  -0.000399  -0.002115  0.000000
  -0.001072  -0.001792  0.000000
  -0.000917  -0.001888  0.000000
  -0.000465  -0.002100  0.000000
  -0.000202  -0.002192  0.000000
  -0.001233  -0.001702  0.000000
  -0.001446  -0.001554  0.000000
  -0.000753  -0.001980  0.000000
  -0.000240  -0.002187  0.000000
  -0.001136  -0.001778  0.000000
  -0.000985  -0.001868  0.000000
  -0.001299  -0.001675  0.000000
  -0.000530  -0.002092  0.000000
  -0.000291  -0.002182  0.000000
  -0.000819  -0.001962  0.000000
  -0.001489  -0.001549  0.000000
  -0.000357  -0.002168  0.000000
  -0.000597  -0.002076  0.000000
  -0.001202  -0.001759  0.000000
  -0.000218  -0.002224  0.000000
  -0.000665  -0.002058  0.000000
  -0.001371  -0.001656  0.000000
  -0.001058  -0.001858  0.000000
  -0.000251  -0.002220  0.000000
  -0.001472  -0.001586  0.000000
  -0.000890  -0.001953  0.000000
  -0.000442  -0.002170  0.000000
  -0.001280  -0.001739  0.000000
  -0.000734  -0.002050  0.000000
  -0.001516  -0.001575  0.000000
  -0.001117  -0.001846  0.000000
  -0.000959  -0.001939  0.000000
  -0.000508  -0.002153  0.000000
  -0.000235  -0.002256  0.000000
  -0.000802  -0.002032  0.000000
  -0.000273  -0.002250  0.000000
  -0.000325  -0.002235  0.000000
  -0.001458  -0.001641  0.000000
  -0.001503  -0.001608  0.000000
  -0.001350  -0.001722  0.000000
  -0.000576  -0.002146  0.000000
  -0.001188  -0.001829  0.000000
  -0.001031  -0.001925  0.000000
  -0.000643  -0.002127  0.000000
  -0.000866  -0.002022  0.000000
  -0.000392  -0.002229  0.000000
  -0.001544  -0.001601  0.000000
  -0.001260  -0.001807  0.000000
  -0.001422  -0.001700  0.000000
  -0.000252  -0.002288  0.000000
  -0.000706  -0.002116  0.000000
  -0.000290  -0.002282  0.000000
  -0.000937  -0.002008  0.000000
  -0.001103  -0.001916  0.000000
  -0.001527  -0.001638  0.000000
  -0.000480  -0.002222  0.000000
  -0.000773  -0.002100  0.000000
  -0.001173  -0.001893  0.000000
  -0.001334  -0.001791  0.000000
  -0.001572  -0.001627  0.000000
  -0.000548  -0.002213  0.000000
  -0.001009  -0.001994  0.000000
  -0.000269  -0.002320  0.000000
  -0.000614  -0.002196  0.000000
  -0.000844  -0.002090  0.000000
  -0.001413  -0.001764  0.000000
  -0.000306  -0.002319  0.000000
  -0.000351  -0.002305  0.000000
  -0.001247  -0.001876  0.000000
  -0.001081  -0.001977  0.000000
  -0.001561  -0.001665  0.000000
  -0.000915  -0.002076  0.000000
  -0.000684  -0.002188  0.000000
  -0.000428  -0.002291  0.000000
  -0.001600  -0.001653  0.000000
  -0.001312  -0.001859  0.000000
  -0.001525  -0.001713  0.000000
  -0.001153  -0.001960  0.000000
  -0.000286  -0.002352  0.000000
  -0.000754  -0.002171  0.000000
  -0.000495  -0.002283  0.000000
  -0.000318  -0.002347  0.000000
  -0.000986  -0.002064  0.000000
  -0.001583  -0.001691  0.000000
  -0.000816  -0.002160  0.000000
  -0.000586  -0.002266  0.000000
  -0.001386  -0.001839  0.000000
  -0.001227  -0.001946  0.000000
  -0.001060  -0.002048  0.000000
  -0.001629  -0.001680  0.000000
  -0.000304  -0.002384  0.000000
  -0.000656  -0.002256  0.000000
  -0.000892  -0.002147  0.000000
  -0.000395  -0.002359  0.000000
  -0.000343  -0.002377  0.000000
  -0.001474  -0.001811  0.000000
  -0.001135  -0.002030  0.000000
  -0.001300  -0.001929  0.000000
  -0.000725  -0.002240  0.000000
  -0.001598  -0.001733  0.000000
  -0.000465  -0.002353  0.000000
  -0.000965  -0.002136  0.000000
  -0.001368  -0.001909  0.000000
  -0.001657  -0.001706  0.000000
  -0.000322  -0.002416  0.000000
  -0.000796  -0.002230  0.000000
  -0.001203  -0.002015  0.000000
  -0.000535  -0.002345  0.000000
  -0.000362  -0.002409  0.000000
  -0.001555  -0.001795  0.000000
  -0.001038  -0.002119  0.000000
  -0.000867  -0.002214  0.000000
  -0.001272  -0.001996  0.000000
  -0.001443  -0.001887  0.000000
  -0.001647  -0.001745  0.000000
  -0.000632  -0.002329  0.000000
  -0.001110  -0.002100  0.000000
  -0.000424  -0.002419  0.000000
  -0.001687  -0.001732  0.000000
  -0.000340  -0.002449  0.000000
  -0.000703  -0.002313  0.000000
  -0.000939  -0.002205  0.000000
  -0.001622  -0.001785  0.000000
  -0.000377  -0.002446  0.000000
  -0.000774  -0.002296  0.000000
  -0.001521  -0.001870  0.000000
  -0.001354  -0.001982  0.000000
  -0.001184  -0.002087  0.000000
  -0.001670  -0.001771  0.000000
  -0.000504  -0.002416  0.000000
  -0.001017  -0.002192  0.000000
  -0.001429  -0.001958  0.000000
  -0.000845  -0.002287  0.000000
  -0.000359  -0.002481  0.000000
  -0.001257  -0.002069  0.000000
  -0.001716  -0.001759  0.000000
  -0.000592  -0.002403  0.000000
  -0.000399  -0.002474  0.000000
  -0.001609  -0.001843  0.000000
  -0.001090  -0.002173  0.000000
  -0.000911  -0.002276  0.000000
  -0.001331  -0.002046  0.000000
  -0.001682  -0.001809  0.000000
  -0.001497  -0.001940  0.000000
  -0.000678  -0.002389  0.000000
  -0.001164  -0.002154  0.000000
  -0.000743  -0.002368  0.000000
  -0.000464  -0.002484  0.000000
  -0.000378  -0.002514  0.000000
  -0.001746  -0.001785  0.000000
  -0.000985  -0.002266  0.000000
  -0.000415  -0.002511  0.000000
  -0.001408  -0.002030  0.000000
  -0.001243  -0.002135  0.000000
  -0.001575  -0.001923  0.000000
  -0.000817  -0.002359  0.000000
  -0.001730  -0.001825  0.000000
  -0.001070  -0.002247  0.000000
  -0.000560  -0.002481  0.000000
  -0.000397  -0.002546  0.000000
  -0.000890  -0.002349  0.000000
  -0.001317  -0.002119  0.000000
  -0.001485  -0.002012  0.000000
  -0.000438  -0.002538  0.000000
  -0.001776  -0.001812  0.000000
  -0.001145  -0.002228  0.000000
  -0.001700  -0.001878  0.000000
  -0.000663  -0.002469  0.000000
  -0.001383  -0.002101  0.000000
  -0.001551  -0.001994  0.000000
  -0.000978  -0.002334  0.000000
  -0.001760  -0.001852  0.000000
  -0.001220  -0.002208  0.000000
  -0.000735  -0.002453  0.000000
  -0.000417  -0.002579  0.000000
  -0.000513  -0.002551  0.000000
  -0.001807  -0.001838  0.000000
  -0.000807  -0.002437  0.000000
  -0.000457  -0.002577  0.000000
  -0.001052  -0.002321  0.000000
  -0.001461  -0.002084  0.000000
  -0.001296  -0.002193  0.000000
  -0.001649  -0.001965  0.000000
  -0.000880  -0.002422  0.000000
  -0.001127  -0.002304  0.000000
  -0.001798  -0.001879  0.000000
  -0.000437  -0.002612  0.000000
  -0.001372  -0.002175  0.000000
  -0.001541  -0.002069  0.000000
  -0.000478  -0.002603  0.000000
  -0.000955  -0.002409  0.000000
  -0.001202  -0.002282  0.000000
  -0.001838  -0.001865  0.000000
  -0.001755  -0.001930  0.000000
  -0.000711  -0.002529  0.000000
  -0.000628  -0.002564  0.000000
  -0.001437  -0.002156  0.000000
  -0.001615  -0.002042  0.000000
  -0.001029  -0.002392  0.000000
  -0.001271  -0.002266  0.000000
  -0.000784  -0.002511  0.000000
  -0.001822  -0.001906  0.000000
  -0.000457  -0.002645  0.000000
  -0.000504  -0.002632  0.000000
  -0.000856  -0.002497  0.000000
  -0.001105  -0.002378  0.000000
  -0.001869  -0.001892  0.000000
  -0.001516  -0.002141  0.000000
  -0.001348  -0.002248  0.000000
  -0.001704  -0.002017  0.000000
  -0.001179  -0.002357  0.000000
  -0.000929  -0.002483  0.000000
  -0.001593  -0.002114  0.000000
  -0.000698  -0.002595  0.000000
  -0.001838  -0.001946  0.000000
  -0.000478  -0.002677  0.000000
  -0.001774  -0.001998  0.000000
  -0.000567  -0.002652  0.000000
  -0.001427  -0.002233  0.000000
  -0.001003  -0.002467  0.000000
  -0.000519  -0.002674  0.000000
  -0.001254  -0.002341  0.000000
  -0.001901  -0.001918  0.000000
  -0.000763  -0.002589  0.000000
  -0.000648  -0.002637  0.000000
  -0.001500  -0.002206  0.000000
  -0.001674  -0.002098  0.000000
  -0.000835  -0.002568  0.000000
  -0.001079  -0.002453  0.000000
  -0.001324  -0.002323  0.000000
  -0.000499  -0.002710  0.000000
  -0.001885  -0.001960  0.000000
  -0.000535  -0.002702  0.000000
  -0.000909  -0.002551  0.000000
  -0.001155  -0.002433  0.000000
  -0.001752  -0.002071  0.000000
  -0.001578  -0.002190  0.000000
  -0.001402  -0.002300  0.000000
  -0.001933  -0.001945  0.000000
  -0.001855  -0.002016  0.000000
  -0.000980  -0.002544  0.000000
  -0.001231  -0.002417  0.000000
  -0.000738  -0.002656  0.000000
  -0.001480  -0.002280  0.000000
  -0.001657  -0.002166  0.000000
  -0.001917  -0.001982  0.000000
  -0.000564  -0.002728  0.000000
  -0.000521  -0.002744  0.000000
  -0.001060  -0.002520  0.000000
  -0.000812  -0.002644  0.000000
  -0.001307  -0.002402  0.000000
  -0.001965  -0.001972  0.000000
  -0.001560  -0.002261  0.000000
  -0.000625  -0.002732  0.000000
  -0.000887  -0.002627  0.000000
  -0.001737  -0.002147  0.000000
  -0.001135  -0.002510  0.000000
  -0.001384  -0.002378  0.000000
  -0.000542  -0.002777  0.000000
  -0.000957  -0.002613  0.000000
  -0.000585  -0.002767  0.000000
  -0.001949  -0.002015  0.000000
  -0.001211  -0.002488  0.000000
  -0.001640  -0.002243  0.000000
  -0.001460  -0.002357  0.000000
  -0.001826  -0.002116  0.000000
  -0.000714  -0.002734  0.000000
  -0.001997  -0.001999  0.000000
  -0.001034  -0.002597  0.000000
  -0.001289  -0.002471  0.000000
  -0.000788  -0.002716  0.000000
  -0.001538  -0.002338  0.000000
  -0.000564  -0.002810  0.000000
  -0.001715  -0.002223  0.000000
  -0.001111  -0.002582  0.000000
  -0.000607  -0.002800  0.000000
  -0.001982  -0.002042  0.000000
  -0.000863  -0.002704  0.000000
  -0.001931  -0.002085  0.000000
  -0.001368  -0.002455  0.000000
  -0.002030  -0.002026  0.000000
  -0.001617  -0.002319  0.000000
  -0.000933  -0.002691  0.000000
  -0.001192  -0.002568  0.000000
  -0.001798  -0.002204  0.000000
  -0.001440  -0.002435  0.000000
  -0.000587  -0.002843  0.000000
  -0.001009  -0.002675  0.000000
  -0.000673  -0.002817  0.000000
  -0.001266  -0.002548  0.000000
  -0.000628  -0.002839  0.000000
  -0.002012  -0.002076  0.000000
  -0.001697  -0.002300  0.000000
  -0.001520  -0.002414  0.000000
  -0.000761  -0.002796  0.000000
  -0.001880  -0.002178  0.000000
  -0.001085  -0.002660  0.000000
  -0.002063  -0.002052  0.000000
  -0.001342  -0.002533  0.000000
  -0.000835  -0.002781  0.000000
  -0.000609  -0.002876  0.000000
  -0.001779  -0.002277  0.000000
  -0.000646  -0.002867  0.000000
  -0.001601  -0.002395  0.000000
  -0.001162  -0.002646  0.000000
  -0.001417  -0.002514  0.000000
  -0.000909  -0.002771  0.000000
  -0.002049  -0.002097  0.000000
  -0.001240  -0.002626  0.000000
  -0.000985  -0.002752  0.000000
  -0.002097  -0.002079  0.000000
  -0.001676  -0.002378  0.000000
  -0.001863  -0.002257  0.000000
  -0.001500  -0.002492  0.000000
  -0.000632  -0.002910  0.000000
  -0.000731  -0.002873  0.000000
  -0.002020  -0.002155  0.000000
  -0.001062  -0.002735  0.000000
  -0.000675  -0.002898  0.000000
  -0.001318  -0.002612  0.000000
  -0.002082  -0.002118  0.000000
  -0.001756  -0.002351  0.000000
  -0.001934  -0.002234  0.000000
  -0.000808  -0.002861  0.000000
  -0.001577  -0.002473  0.000000
  -0.001140  -0.002718  0.000000
  -0.002131  -0.002106  0.000000
  -0.001397  -0.002594  0.000000
  -0.000885  -0.002845  0.000000
  -0.000656  -0.002943  0.000000
  -0.000699  -0.002932  0.000000
  -0.001840  -0.002335  0.000000
  -0.001660  -0.002455  0.000000
  -0.001218  -0.002706  0.000000
  -0.000961  -0.002831  0.000000
  -0.001477  -0.002572  0.000000
  -0.002116  -0.002151  0.000000
  -0.001296  -0.002686  0.000000
  -0.001906  -0.002314  0.000000
  -0.001038  -0.002815  0.000000
  -0.001741  -0.002431  0.000000
  -0.002165  -0.002133  0.000000
  -0.000771  -0.002937  0.000000
  -0.001558  -0.002553  0.000000
  -0.000679  -0.002976  0.000000
  -0.001115  -0.002798  0.000000
  -0.002002  -0.002270  0.000000
  -0.000720  -0.002971  0.000000
  -0.001377  -0.002669  0.000000
  -0.001813  -0.002413  0.000000
  -0.000857  -0.002925  0.000000
  -0.002151  -0.002178  0.000000
  -0.001638  -0.002531  0.000000
  -0.001193  -0.002786  0.000000
  -0.002104  -0.002226  0.000000
  -0.001458  -0.002651  0.000000
  -0.000935  -0.002911  0.000000
  -0.002200  -0.002160  0.000000
  -0.000703  -0.003010  0.000000
  -0.000747  -0.002998  0.000000
  -0.001272  -0.002766  0.000000
  -0.001721  -0.002512  0.000000
  -0.001899  -0.002396  0.000000
  -0.001013  -0.002896  0.000000
  -0.001532  -0.002633  0.000000
  -0.002186  -0.002206  0.000000
  -0.001352  -0.002748  0.000000
  -0.001979  -0.002362  0.000000
  -0.001091  -0.002879  0.000000
  -0.001804  -0.002489  0.000000
  -0.001614  -0.002610  0.000000
  -0.002235  -0.002187  0.000000
  -0.000728  -0.003043  0.000000
  -0.001169  -0.002861  0.000000
  -0.000818  -0.003015  0.000000
  -0.002061  -0.002329  0.000000
  -0.000767  -0.003040  0.000000
  -0.001433  -0.002732  0.000000
  -0.001885  -0.002459  0.000000
  -0.000907  -0.002989  0.000000
  -0.001697  -0.002592  0.000000
  -0.001249  -0.002848  0.000000
  -0.002228  -0.002232  0.000000
  -0.000985  -0.002976  0.000000
  -0.001514  -0.002715  0.000000
  -0.000752  -0.003077  0.000000
  -0.002270  -0.002214  0.000000
  -0.000791  -0.003064  0.000000
  -0.001967  -0.002444  0.000000
  -0.001328  -0.002829  0.000000
  -0.002184  -0.002288  0.000000
  -0.001064  -0.002960  0.000000
  -0.001781  -0.002574  0.000000
  -0.001593  -0.002692  0.000000
  -0.001140  -0.002940  0.000000
  -0.002256  -0.002260  0.000000
  -0.002050  -0.002412  0.000000
  -0.001406  -0.002812  0.000000
  -0.001872  -0.002542  0.000000
  -0.000778  -0.003110  0.000000
  -0.002306  -0.002240  0.000000
  -0.000822  -0.003098  0.000000
  -0.001677  -0.002676  0.000000
  -0.001220  -0.002928  0.000000
  -0.001484  -0.002793  0.000000
  -0.000881  -0.003082  0.000000
  -0.000958  -0.003054  0.000000
  -0.001941  -0.002523  0.000000
  -0.002138  -0.002392  0.000000
  -0.001753  -0.002653  0.000000
  -0.001300  -0.002908  0.000000
  -0.001565  -0.002770  0.000000
  -0.001037  -0.003041  0.000000
  -0.002278  -0.002302  0.000000
  -0.000803  -0.003144  0.000000
  -0.000842  -0.003133  0.000000
  -0.002342  -0.002267  0.000000
  -0.002223  -0.002362  0.000000
  -0.001116  -0.003023  0.000000
  -0.001382  -0.002895  0.000000
  -0.002029  -0.002505  0.000000
  -0.001839  -0.002638  0.000000
  -0.001649  -0.002757  0.000000
  -0.001196  -0.003004  0.000000
  -0.001464  -0.002876  0.000000
  -0.002112  -0.002473  0.000000
  -0.002328  -0.002315  0.000000
  -0.001929  -0.002604  0.000000
  -0.000829  -0.003178  0.000000
  -0.000873  -0.003164  0.000000
  -0.001733  -0.002737  0.000000
  -0.001276  -0.002991  0.000000
  -0.002378  -0.002294  0.000000
  -0.001544  -0.002854  0.000000
  -0.000933  -0.003150  0.000000
  -0.001011  -0.003119  0.000000
  -0.002012  -0.002575  0.000000
  -0.001356  -0.002967  0.000000
  -0.002207  -0.002445  0.000000
  -0.002301  -0.002377  0.000000
  -0.001817  -0.002714  0.000000
  -0.001625  -0.002834  0.000000
  -0.001090  -0.003106  0.000000
  -0.002365  -0.002342  0.000000
  -0.000855  -0.003211  0.000000
  -0.000894  -0.003200  0.000000
  -0.001170  -0.003087  0.000000
  -0.001437  -0.002958  0.000000
  -0.002415  -0.002321  0.000000
  -0.002097  -0.002557  0.000000
  -0.001902  -0.002693  0.000000
  -0.001709  -0.002819  0.000000
  -0.001251  -0.003069  0.000000
  -0.001518  -0.002935  0.000000
  -0.002183  -0.002527  0.000000
  -0.000985  -0.003203  0.000000
  -0.001997  -0.002660  0.000000
  -0.000881  -0.003245  0.000000
  -0.002409  -0.002368  0.000000
  -0.000926  -0.003231  0.000000
  -0.001792  -0.002796  0.000000
  -0.001332  -0.003051  0.000000
  -0.001065  -0.003183  0.000000
  -0.002452  -0.002348  0.000000
  -0.001602  -0.002918  0.000000
  -0.001414  -0.003031  0.000000
  -0.002072  -0.002639  0.000000
  -0.002369  -0.002431  0.000000
  -0.002272  -0.002505  0.000000
  -0.001878  -0.002776  0.000000
  -0.001145  -0.003171  0.000000
  -0.001686  -0.002897  0.000000
  -0.000908  -0.003279  0.000000
  -0.002439  -0.002396  0.000000
  -0.000953  -0.003264  0.000000
  -0.001225  -0.003150  0.000000
  -0.001496  -0.003019  0.000000
  -0.001969  -0.002742  0.000000
  -0.002489  -0.002374  0.000000
  -0.002161  -0.002619  0.000000
  -0.001770  -0.002880  0.000000
  -0.001307  -0.003135  0.000000
  -0.001578  -0.002997  0.000000
  -0.001028  -0.003267  0.000000
  -0.000935  -0.003312  0.000000
  -0.002247  -0.002588  0.000000
  -0.002057  -0.002722  0.000000
  -0.001388  -0.003115  0.000000
  -0.002483  -0.002421  0.000000
  -0.001856  -0.002858  0.000000
  -0.000977  -0.003304  0.000000
  -0.001120  -0.003248  0.000000
  -0.001662  -0.002981  0.000000
  -0.002527  -0.002401  0.000000
  -0.002345  -0.002547  0.000000
  -0.001472  -0.003097  0.000000
  -0.002142  -0.002694  0.000000
  -0.001201  -0.003235  0.000000
  -0.001945  -0.002833  0.000000
  -0.001743  -0.002964  0.000000
  -0.002455  -0.002485  0.000000
  -0.000962  -0.003346  0.000000
  -0.002514  -0.002443  0.000000
  -0.001008  -0.003331  0.000000
  -0.001281  -0.003212  0.000000
  -0.001555  -0.003082  0.000000
  -0.002031  -0.002807  0.000000
  -0.002230  -0.002674  0.000000
  -0.002564  -0.002428  0.000000
  -0.001363  -0.003200  0.000000
  -0.001830  -0.002946  0.000000
  -0.001635  -0.003065  0.000000
  -0.000990  -0.003380  0.000000
  -0.002318  -0.002645  0.000000
  -0.002125  -0.002781  0.000000
  -0.001086  -0.003347  0.000000
  -0.001447  -0.003181  0.000000
  -0.001035  -0.003371  0.000000
  -0.001176  -0.003313  0.000000
  -0.002552  -0.002477  0.000000
  -0.001926  -0.002919  0.000000
  -0.001721  -0.003048  0.000000
  -0.002603  -0.002454  0.000000
  -0.001258  -0.003299  0.000000
  -0.002205  -0.002759  0.000000
  -0.001531  -0.003167  0.000000
  -0.002012  -0.002893  0.000000
  -0.002409  -0.002621  0.000000
  -0.001018  -0.003413  0.000000
  -0.001806  -0.003027  0.000000
  -0.001056  -0.003402  0.000000
  -0.002526  -0.002543  0.000000
  -0.001334  -0.003284  0.000000
  -0.002590  -0.002497  0.000000
  -0.002099  -0.002865  0.000000
  -0.001415  -0.003259  0.000000
  -0.002296  -0.002737  0.000000
  -0.001624  -0.003157  0.000000
  -0.002641  -0.002481  0.000000
  -0.001893  -0.003009  0.000000
  -0.001696  -0.003130  0.000000
  -0.001047  -0.003447  0.000000
  -0.001093  -0.003431  0.000000
  -0.002188  -0.002844  0.000000
  -0.002384  -0.002707  0.000000
  -0.001500  -0.003251  0.000000
  -0.001229  -0.003384  0.000000
  -0.001153  -0.003420  0.000000
  -0.001993  -0.002980  0.000000
  -0.002630  -0.002531  0.000000
  -0.001310  -0.003351  0.000000
  -0.001783  -0.003114  0.000000
  -0.002680  -0.002507  0.000000
  -0.002488  -0.002663  0.000000
  -0.002276  -0.002816  0.000000
  -0.001586  -0.003238  0.000000
  -0.002079  -0.002953  0.000000
  -0.001075  -0.003480  0.000000
  -0.001116  -0.003468  0.000000
  -0.001866  -0.003095  0.000000
  -0.001395  -0.003347  0.000000
  -0.002604  -0.002598  0.000000
  -0.002668  -0.002551  0.000000
  -0.002167  -0.002925  0.000000
  -0.001465  -0.003333  0.000000
  -0.002365  -0.002794  0.000000
  -0.001673  -0.003233  0.000000
  -0.002720  -0.002534  0.000000
  -0.001954  -0.003077  0.000000
  -0.001548  -0.003308  0.000000
  -0.001105  -0.003514  0.000000
  -0.001755  -0.003199  0.000000
  -0.001151  -0.003497  0.000000
  -0.002257  -0.002905  0.000000
  -0.002456  -0.002766  0.000000
  -0.002061  -0.003041  0.000000
  -0.002708  -0.002585  0.000000
  -0.001333  -0.003443  0.000000
  -0.001842  -0.003182  0.000000
  -0.002759  -0.002560  0.000000
  -0.001224  -0.003503  0.000000
  -0.002341  -0.002881  0.000000
  -0.001633  -0.003313  0.000000
  -0.001134  -0.003548  0.000000
  -0.002148  -0.003014  0.000000
  -0.001181  -0.003531  0.000000
  -0.002549  -0.002741  0.000000
  -0.001444  -0.003419  0.000000
  -0.001929  -0.003160  0.000000
  -0.002753  -0.002602  0.000000
  -0.002709  -0.002642  0.000000
  -0.001527  -0.003397  0.000000
  -0.002431  -0.002852  0.000000
  -0.002231  -0.002991  0.000000
  -0.002799  -0.002586  0.000000
  -0.001722  -0.003310  0.000000
  -0.002018  -0.003142  0.000000
  -0.001201  -0.003565  0.000000
  -0.001164  -0.003581  0.000000
  -0.001815  -0.003269  0.000000
  -0.002658  -0.002711  0.000000
  -0.001593  -0.003395  0.000000
  -0.002322  -0.002969  0.000000
  -0.002524  -0.002829  0.000000
  -0.002782  -0.002635  0.000000
  -0.002131  -0.003100  0.000000
  -0.001905  -0.003249  0.000000
  -0.002840  -0.002613  0.000000
  -0.001194  -0.003615  0.000000
  -0.001241  -0.003597  0.000000
  -0.002412  -0.002942  0.000000
  -0.002206  -0.003082  0.000000
  -0.001681  -0.003392  0.000000
  -0.002614  -0.002801  0.000000
  -0.001313  -0.003576  0.000000
  -0.001409  -0.003534  0.000000
  -0.002003  -0.003219  0.000000
  -0.001768  -0.003365  0.000000
  -0.002764  -0.002707  0.000000
  -0.002828  -0.002658  0.000000
  -0.001499  -0.003510  0.000000
  -0.002498  -0.002918  0.000000
  -0.002297  -0.003057  0.000000
  -0.002101  -0.003186  0.000000
  -0.001224  -0.003648  0.000000
  -0.002880  -0.002639  0.000000
  -0.001267  -0.003633  0.000000
  -0.002709  -0.002777  0.000000
  -0.001581  -0.003491  0.000000
  -0.001896  -0.003328  0.000000
  -0.002589  -0.002888  0.000000
  -0.002392  -0.003031  0.000000
  -0.002188  -0.003172  0.000000
  -0.001983  -0.003299  0.000000
  -0.002870  -0.002691  0.000000
  -0.001660  -0.003485  0.000000
  -0.001255  -0.003682  0.000000
  -0.001302  -0.003663  0.000000
  -0.002921  -0.002665  0.000000
  -0.002478  -0.003006  0.000000
  -0.001748  -0.003456  0.000000
  -0.002276  -0.003145  0.000000
  -0.002684  -0.002864  0.000000
  -0.001380  -0.003647  0.000000
  -0.002084  -0.003276  0.000000
  -0.001834  -0.003430  0.000000
  -0.001474  -0.003616  0.000000
  -0.002846  -0.002761  0.000000
  -0.002169  -0.003243  0.000000
  -0.002911  -0.002718  0.000000
  -0.002570  -0.002979  0.000000
  -0.002367  -0.003121  0.000000
  -0.001286  -0.003715  0.000000
  -0.001334  -0.003696  0.000000
  -0.002962  -0.002691  0.000000
  -0.002779  -0.002841  0.000000
  -0.001965  -0.003391  0.000000
  -0.001560  -0.003606  0.000000
  -0.002662  -0.002948  0.000000
  -0.001643  -0.003577  0.000000
  -0.002459  -0.003096  0.000000
  -0.002262  -0.003228  0.000000
  -0.002052  -0.003362  0.000000
  -0.001728  -0.003547  0.000000
  -0.002960  -0.002741  0.000000
  -0.001318  -0.003749  0.000000
  -0.001371  -0.003727  0.000000
  -0.003004  -0.002717  0.000000
  -0.001813  -0.003521  0.000000
  -0.002550  -0.003068  0.000000
  -0.002343  -0.003211  0.000000
  -0.002141  -0.003343  0.000000
  -0.002752  -0.002931  0.000000
  -0.001447  -0.003725  0.000000
  -0.002995  -0.002762  0.000000
  -0.002930  -0.002815  0.000000
  -0.001924  -0.003494  0.000000
  -0.002230  -0.003315  0.000000
  -0.001350  -0.003782  0.000000
  -0.002643  -0.003040  0.000000
  -0.002435  -0.003187  0.000000
  -0.001543  -0.003699  0.000000
  -0.001396  -0.003769  0.000000
  -0.002839  -0.002906  0.000000
  -0.003046  -0.002742  0.000000
  -0.001627  -0.003670  0.000000
  -0.002035  -0.003453  0.000000
  -0.001711  -0.003640  0.000000
  -0.002120  -0.003420  0.000000
  -0.002723  -0.003019  0.000000
  -0.002530  -0.003160  0.000000
  -0.002320  -0.003302  0.000000
  -0.001789  -0.003611  0.000000
  -0.001382  -0.003815  0.000000
  -0.001429  -0.003796  0.000000
  -0.003037  -0.002796  0.000000
  -0.003088  -0.002768  0.000000
  -0.002622  -0.003132  0.000000
  -0.001894  -0.003586  0.000000
  -0.002411  -0.003277  0.000000
  -0.002212  -0.003407  0.000000
  -0.002820  -0.002998  0.000000
  -0.002299  -0.003375  0.000000
  -0.001513  -0.003804  0.000000
  -0.001414  -0.003849  0.000000
  -0.002914  -0.002946  0.000000
  -0.003014  -0.002869  0.000000
  -0.002501  -0.003248  0.000000
  -0.001608  -0.003763  0.000000
  -0.002705  -0.003108  0.000000
  -0.003079  -0.002822  0.000000
  -0.001462  -0.003836  0.000000
  -0.001691  -0.003732  0.000000
  -0.003131  -0.002794  0.000000
  -0.001778  -0.003706  0.000000
  -0.002006  -0.003585  0.000000
  -0.002593  -0.003221  0.000000
  -0.001861  -0.003670  0.000000
  -0.002181  -0.003492  0.000000
  -0.002798  -0.003079  0.000000
  -0.002112  -0.003538  0.000000
  -0.002392  -0.003370  0.000000
  -0.001447  -0.003882  0.000000
  -0.001486  -0.003866  0.000000
  -0.003130  -0.002845  0.000000
  -0.001947  -0.003648  0.000000
  -0.002266  -0.003463  0.000000
  -0.003174  -0.002819  0.000000
  -0.002687  -0.003199  0.000000
  -0.002483  -0.003341  0.000000
  -0.002893  -0.003058  0.000000
  -0.001588  -0.003855  0.000000
  -0.001480  -0.003915  0.000000
  -0.001528  -0.003894  0.000000
  -0.001675  -0.003826  0.000000
  -0.002359  -0.003446  0.000000
  -0.003124  -0.002897  0.000000
  -0.003164  -0.002867  0.000000
  -0.002780  -0.003169  0.000000
  -0.002580  -0.003310  0.000000
  -0.001760  -0.003795  0.000000
  -0.002989  -0.003028  0.000000
  -0.003217  -0.002845  0.000000
  -0.001846  -0.003764  0.000000
  -0.002443  -0.003425  0.000000
  -0.001932  -0.003732  0.000000
  -0.002660  -0.003291  0.000000
  -0.002251  -0.003557  0.000000
  -0.001514  -0.003948  0.000000
  -0.002865  -0.003149  0.000000
  -0.001562  -0.003927  0.000000
  -0.003201  -0.002896  0.000000
  -0.002019  -0.003706  0.000000
  -0.003083  -0.003003  0.000000
  -0.002745  -0.003258  0.000000
  -0.002329  -0.003537  0.000000
  -0.002546  -0.003400  0.000000
  -0.003260  -0.002870  0.000000
  -0.001644  -0.003919  0.000000
  -0.002205  -0.003622  0.000000
  -0.002108  -0.003678  0.000000
  -0.002963  -0.003127  0.000000
  -0.001548  -0.003981  0.000000
  -0.001743  -0.003890  0.000000
  -0.001593  -0.003967  0.000000
  -0.002423  -0.003519  0.000000
  -0.001830  -0.003859  0.000000
  -0.003188  -0.002974  0.000000
  -0.002842  -0.003240  0.000000
  -0.002642  -0.003385  0.000000
  -0.003253  -0.002926  0.000000
  -0.001917  -0.003828  0.000000
  -0.003304  -0.002895  0.000000
  -0.003059  -0.003097  0.000000
  -0.002515  -0.003491  0.000000
  -0.001999  -0.003800  0.000000
  -0.002301  -0.003629  0.000000
  -0.002734  -0.003352  0.000000
  -0.001582  -0.004014  0.000000
  -0.001630  -0.003992  0.000000
  -0.002938  -0.003214  0.000000
  -0.002088  -0.003773  0.000000
  -0.003304  -0.002947  0.000000
  -0.003157  -0.003068  0.000000
  -0.002809  -0.003331  0.000000
  -0.002394  -0.003608  0.000000
  -0.002610  -0.003472  0.000000
  -0.001715  -0.003984  0.000000
  -0.003349  -0.002920  0.000000
  -0.002194  -0.003740  0.000000
  -0.001813  -0.003953  0.000000
  -0.001616  -0.004047  0.000000
  -0.003035  -0.003191  0.000000
  -0.002901  -0.003293  0.000000
  -0.001662  -0.004032  0.000000
  -0.002699  -0.003442  0.000000
  -0.001900  -0.003924  0.000000
  -0.002495  -0.003584  0.000000
  -0.003342  -0.002968  0.000000
  -0.003277  -0.003026  0.000000
  -0.002288  -0.003723  0.000000
  -0.001988  -0.003892  0.000000
  -0.003393  -0.002945  0.000000
  -0.002074  -0.003858  0.000000
  -0.003134  -0.003163  0.000000
  -0.001651  -0.004080  0.000000
  -0.001700  -0.004058  0.000000
  -0.002795  -0.003423  0.000000
  -0.002372  -0.003703  0.000000
  -0.002591  -0.003567  0.000000
  -0.002164  -0.003833  0.000000
  -0.003007  -0.003285  0.000000
  -0.003386  -0.003002  0.000000
  -0.002888  -0.003390  0.000000
  -0.002465  -0.003676  0.000000
  -0.002684  -0.003537  0.000000
  -0.003087  -0.003249  0.000000
  -0.003438  -0.002970  0.000000
  -0.002257  -0.003815  0.000000
  -0.001686  -0.004113  0.000000
  -0.003226  -0.003160  0.000000
  -0.001970  -0.003979  0.000000
  -0.001734  -0.004098  0.000000
  -0.001792  -0.004071  0.000000
  -0.002982  -0.003353  0.000000
  -0.002764  -0.003516  0.000000
  -0.002560  -0.003657  0.000000
  -0.002061  -0.003955  0.000000
  -0.003437  -0.003017  0.000000
  -0.002351  -0.003798  0.000000
  -0.003483  -0.002995  0.000000
  -0.001918  -0.004047  0.000000
  -0.002141  -0.003928  0.000000
  -0.001763  -0.004124  0.000000
  -0.003400  -0.003068  0.000000
  -0.001722  -0.004146  0.000000
  -0.002651  -0.003628  0.000000
  -0.003185  -0.003250  0.000000
  -0.002872  -0.003487  0.000000
  -0.002443  -0.003771  0.000000
  -0.002227  -0.003908  0.000000
  -0.003076  -0.003356  0.000000
  -0.003347  -0.003145  0.000000
  -0.003477  -0.003052  0.000000
  -0.002747  -0.003609  0.000000
  -0.003528  -0.003019  0.000000
  -0.001806  -0.004155  0.000000
  -0.001757  -0.004178  0.000000
  -0.002538  -0.003753  0.000000
  -0.002970  -0.003466  0.000000
  -0.002321  -0.003890  0.000000
  -0.002037  -0.004050  0.000000
  -0.003288  -0.003238  0.000000
  -0.002841  -0.003578  0.000000
  -0.002632  -0.003724  0.000000
  -0.002127  -0.004024  0.000000
  -0.002414  -0.003864  0.000000
  -0.003064  -0.003435  0.000000
  -0.001890  -0.004154  0.000000
  -0.003530  -0.003074  0.000000
  -0.002216  -0.003991  0.000000
  -0.001794  -0.004211  0.000000
  -0.003574  -0.003044  0.000000
  -0.001977  -0.004126  0.000000
  -0.001843  -0.004194  0.000000
  -0.002716  -0.003703  0.000000
  -0.003246  -0.003329  0.000000
  -0.002939  -0.003560  0.000000
  -0.002509  -0.003845  0.000000
  -0.003391  -0.003225  0.000000
  -0.002297  -0.003984  0.000000
  -0.003504  -0.003154  0.000000
  -0.001872  -0.004222  0.000000
  -0.002601  -0.003818  0.000000
  -0.001830  -0.004243  0.000000
  -0.002821  -0.003676  0.000000
  -0.003035  -0.003528  0.000000
  -0.003574  -0.003107  0.000000
  -0.003620  -0.003068  0.000000
  -0.002391  -0.003960  0.000000
  -0.003206  -0.003421  0.000000
  -0.003349  -0.003317  0.000000
  -0.001978  -0.004208  0.000000
  -0.002697  -0.003797  0.000000
  -0.002054  -0.004170  0.000000
  -0.002919  -0.003654  0.000000
  -0.002246  -0.004076  0.000000
  -0.001916  -0.004251  0.000000
  -0.002486  -0.003941  0.000000
  -0.003624  -0.003119  0.000000
  -0.001867  -0.004276  0.000000
  -0.002150  -0.004133  0.000000
  -0.003666  -0.003092  0.000000
  -0.003148  -0.003518  0.000000
  -0.002791  -0.003769  0.000000
  -0.003309  -0.003408  0.000000
  -0.003015  -0.003625  0.000000
  -0.002580  -0.003914  0.000000
  -0.003600  -0.003179  0.000000
  -0.003453  -0.003304  0.000000
  -0.002366  -0.004056  0.000000
  -0.001953  -0.004283  0.000000
  -0.001904  -0.004308  0.000000
  -0.003661  -0.003150  0.000000
  -0.002667  -0.003892  0.000000
  -0.002889  -0.003749  0.000000
  -0.003713  -0.003116  0.000000
  -0.002457  -0.004035  0.000000
  -0.002041  -0.004270  0.000000
  -0.003269  -0.003500  0.000000
  -0.003119  -0.003615  0.000000
  -0.003413  -0.003395  0.000000
  -0.002140  -0.004233  0.000000
  -0.002770  -0.003867  0.000000
  -0.003558  -0.003289  0.000000
  -0.002549  -0.004009  0.000000
  -0.001941  -0.004340  0.000000
  -0.002228  -0.004194  0.000000
  -0.002993  -0.003723  0.000000
  -0.001988  -0.004322  0.000000
  -0.003716  -0.003171  0.000000
  -0.003760  -0.003140  0.000000
  -0.002337  -0.004151  0.000000
  -0.003219  -0.003591  0.000000
  -0.002858  -0.003845  0.000000
  -0.002645  -0.003988  0.000000
  -0.003371  -0.003488  0.000000
  -0.003688  -0.003234  0.000000
  -0.003518  -0.003383  0.000000
  -0.002028  -0.004346  0.000000
  -0.001979  -0.004372  0.000000
  -0.002432  -0.004132  0.000000
  -0.003756  -0.003190  0.000000
  -0.003094  -0.003711  0.000000
  -0.002953  -0.003813  0.000000
  -0.002740  -0.003962  0.000000
  -0.003807  -0.003163  0.000000
  -0.002526  -0.004107  0.000000
  -0.002217  -0.004294  0.000000
  -0.003331  -0.003583  0.000000
  -0.002118  -0.004347  0.000000
  -0.003190  -0.003687  0.000000
  -0.002308  -0.004248  0.000000
  -0.003475  -0.003476  0.000000
  -0.002017  -0.004404  0.000000
  -0.002838  -0.003941  0.000000
  -0.002067  -0.004386  0.000000
  -0.003622  -0.003368  0.000000
  -0.002616  -0.004085  0.000000
  -0.003054  -0.003804  0.000000
  -0.003803  -0.003222  0.000000
  -0.003855  -0.003187  0.000000
  -0.002403  -0.004227  0.000000
  -0.002934  -0.003912  0.000000
  -0.002717  -0.004060  0.000000
  -0.003147  -0.003775  0.000000
  -0.003434  -0.003568  0.000000
  -0.002096  -0.004415  0.000000
  -0.002056  -0.004436  0.000000
  -0.003293  -0.003677  0.000000
  -0.002497  -0.004203  0.000000
  -0.003580  -0.003461  0.000000
  -0.003849  -0.003238  0.000000
  -0.003787  -0.003302  0.000000
  -0.003013  -0.003896  0.000000
  -0.003903  -0.003210  0.000000
  -0.002808  -0.004038  0.000000
  -0.002593  -0.004182  0.000000
  -0.002370  -0.004309  0.000000
  -0.002294  -0.004355  0.000000
  -0.002144  -0.004441  0.000000
  -0.003109  -0.003864  0.000000
  -0.002094  -0.004468  0.000000
  -0.002209  -0.004410  0.000000
  -0.003250  -0.003769  0.000000
  -0.003395  -0.003663  0.000000
  -0.003539  -0.003556  0.000000
  -0.002913  -0.004011  0.000000
  -0.003686  -0.003446  0.000000
  -0.002688  -0.004156  0.000000
  -0.003899  -0.003270  0.000000
  -0.003951  -0.003233  0.000000
  -0.002992  -0.003991  0.000000
  -0.002457  -0.004326  0.000000
  -0.002176  -0.004477  0.000000
  -0.002133  -0.004499  0.000000
  -0.002786  -0.004135  0.000000
  -0.003211  -0.003854  0.000000
  -0.003352  -0.003755  0.000000
  -0.002564  -0.004279  0.000000
  -0.003500  -0.003651  0.000000
  -0.003645  -0.003542  0.000000
  -0.003948  -0.003293  0.000000
  -0.003884  -0.003350  0.000000
  -0.003089  -0.003964  0.000000
  -0.003793  -0.003431  0.000000
  -0.002876  -0.004105  0.000000
  -0.003999  -0.003256  0.000000
  -0.002285  -0.004457  0.000000
  -0.002373  -0.004415  0.000000
  -0.002664  -0.004255  0.000000
  -0.003168  -0.003931  0.000000
  -0.002222  -0.004503  0.000000
  -0.002173  -0.004531  0.000000
  -0.003312  -0.003849  0.000000
  -0.003456  -0.003745  0.000000
  -0.002975  -0.004087  0.000000
  -0.003604  -0.003637  0.000000
  -0.004005  -0.003308  0.000000
  -0.003751  -0.003527  0.000000
  -0.004048  -0.003279  0.000000
  -0.002764  -0.004235  0.000000
  -0.002262  -0.004534  0.000000
  -0.002212  -0.004562  0.000000
  -0.003065  -0.004063  0.000000
  -0.002860  -0.004205  0.000000
  -0.003987  -0.003373  0.000000
  -0.003267  -0.003941  0.000000
  -0.003416  -0.003836  0.000000
  -0.002635  -0.004353  0.000000
  -0.002544  -0.004405  0.000000
  -0.003561  -0.003731  0.000000
  -0.002352  -0.004517  0.000000
  -0.004046  -0.003339  0.000000
  -0.003710  -0.003625  0.000000
  -0.003163  -0.004032  0.000000
  -0.004097  -0.003302  0.000000
  -0.002453  -0.004475  0.000000
  -0.003858  -0.003512  0.000000
  -0.002945  -0.004185  0.000000
  -0.002252  -0.004594  0.000000
  -0.002732  -0.004329  0.000000
  -0.002300  -0.004573  0.000000
  -0.003371  -0.003935  0.000000
  -0.003520  -0.003827  0.000000
  -0.003044  -0.004162  0.000000
  -0.002825  -0.004301  0.000000
  -0.003667  -0.003720  0.000000
  -0.004103  -0.003357  0.000000
  -0.004146  -0.003324  0.000000
  -0.003817  -0.003608  0.000000
  -0.002342  -0.004596  0.000000
  -0.002293  -0.004625  0.000000
  -0.003966  -0.003496  0.000000
  -0.003142  -0.004133  0.000000
  -0.002924  -0.004283  0.000000
  -0.002619  -0.004467  0.000000
  -0.002431  -0.004578  0.000000
  -0.004143  -0.003377  0.000000
  -0.003325  -0.004028  0.000000
  -0.003477  -0.003921  0.000000
  -0.002708  -0.004429  0.000000
  -0.003623  -0.003815  0.000000
  -0.002534  -0.004534  0.000000
  -0.003778  -0.003696  0.000000
  -0.004196  -0.003346  0.000000
  -0.004091  -0.003440  0.000000
  -0.003241  -0.004103  0.000000
  -0.003021  -0.004255  0.000000
  -0.002333  -0.004656  0.000000
  -0.003924  -0.003593  0.000000
  -0.002381  -0.004635  0.000000
  -0.002804  -0.004402  0.000000
  -0.003119  -0.004232  0.000000
  -0.004194  -0.003407  0.000000
  -0.002892  -0.004381  0.000000
  -0.003582  -0.003911  0.000000
  -0.003729  -0.003801  0.000000
  -0.004245  -0.003368  0.000000
  -0.002424  -0.004657  0.000000
  -0.002374  -0.004687  0.000000
  -0.002684  -0.004519  0.000000
  -0.003883  -0.003691  0.000000
  -0.004033  -0.003578  0.000000
  -0.003218  -0.004204  0.000000
  -0.002512  -0.004638  0.000000
  -0.002998  -0.004356  0.000000
  -0.002771  -0.004499  0.000000
  -0.004247  -0.003418  0.000000
  -0.002616  -0.004592  0.000000
  -0.003452  -0.004062  0.000000
  -0.003844  -0.003775  0.000000
  -0.004296  -0.003390  0.000000
  -0.003688  -0.003898  0.000000
  -0.004207  -0.003472  0.000000
  -0.002416  -0.004717  0.000000
  -0.002463  -0.004696  0.000000
  -0.003092  -0.004332  0.000000
  -0.003991  -0.003676  0.000000
  -0.002870  -0.004480  0.000000
  -0.004142  -0.003562  0.000000
  -0.003341  -0.004192  0.000000
  -0.003554  -0.004041  0.000000
  -0.004287  -0.003450  0.000000
  -0.003194  -0.004305  0.000000
  -0.002507  -0.004718  0.000000
  -0.002967  -0.004452  0.000000
  -0.002457  -0.004748  0.000000
  -0.004346  -0.003412  0.000000
  -0.003803  -0.003871  0.000000
  -0.003647  -0.003995  0.000000
  -0.003420  -0.004161  0.000000
  -0.003949  -0.003774  0.000000
  -0.002713  -0.004627  0.000000
  -0.004099  -0.003660  0.000000
  -0.003067  -0.004434  0.000000
  -0.002601  -0.004714  0.000000
  -0.002839  -0.004579  0.000000
  -0.003301  -0.004288  0.000000
  -0.004346  -0.003473  0.000000
  -0.003522  -0.004141  0.000000
  -0.002499  -0.004778  0.000000
  -0.004397  -0.003433  0.000000
  -0.004284  -0.003535  0.000000
  -0.002550  -0.004756  0.000000
  -0.003909  -0.003853  0.000000
  -0.003757  -0.003987  0.000000
  -0.003165  -0.004407  0.000000
  -0.002944  -0.004554  0.000000
  -0.004057  -0.003759  0.000000
  -0.004209  -0.003645  0.000000
  -0.003625  -0.004119  0.000000
  -0.003405  -0.004277  0.000000
  -0.002582  -0.004785  0.000000
  -0.002541  -0.004809  0.000000
  -0.004405  -0.003491  0.000000
  -0.004447  -0.003454  0.000000
  -0.003035  -0.004533  0.000000
  -0.003266  -0.004386  0.000000
  -0.003493  -0.004236  0.000000
  -0.003862  -0.003962  0.000000
  -0.004015  -0.003857  0.000000
  -0.003728  -0.004091  0.000000
  -0.004166  -0.003744  0.000000
  -0.003134  -0.004505  0.000000
  -0.002633  -0.004808  0.000000
  -0.004451  -0.003504  0.000000
  -0.002703  -0.004772  0.000000
  -0.002812  -0.004710  0.000000
  -0.002910  -0.004653  0.000000
  -0.002584  -0.004839  0.000000
  -0.004319  -0.003629  0.000000
  -0.003363  -0.004373  0.000000
  -0.004402  -0.003560  0.000000
  -0.004499  -0.003475  0.000000
  -0.003597  -0.004215  0.000000
  -0.003968  -0.003938  0.000000
  -0.003832  -0.004064  0.000000
  -0.003235  -0.004486  0.000000
  -0.003010  -0.004634  0.000000
  -0.003463  -0.004343  0.000000
  -0.004124  -0.003843  0.000000
  -0.002670  -0.004843  0.000000
  -0.002626  -0.004869  0.000000
  -0.004276  -0.003728  0.000000
  -0.003702  -0.004194  0.000000
  -0.004500  -0.003538  0.000000
  -0.004550  -0.003496  0.000000
  -0.003109  -0.004608  0.000000
  -0.003337  -0.004465  0.000000
  -0.003565  -0.004315  0.000000
  -0.003936  -0.004040  0.000000
  -0.004081  -0.003942  0.000000
  -0.002719  -0.004867  0.000000
  -0.003804  -0.004166  0.000000
  -0.002670  -0.004899  0.000000
  -0.003202  -0.004586  0.000000
  -0.004410  -0.003678  0.000000
  -0.004552  -0.003550  0.000000
  -0.002797  -0.004837  0.000000
  -0.002979  -0.004734  0.000000
  -0.004602  -0.003517  0.000000
  -0.003440  -0.004446  0.000000
  -0.003668  -0.004294  0.000000
  -0.004041  -0.004012  0.000000
  -0.004507  -0.003618  0.000000
  -0.002912  -0.004793  0.000000
  -0.003303  -0.004558  0.000000
  -0.002763  -0.004896  0.000000
  -0.003084  -0.004710  0.000000
  -0.003909  -0.004143  0.000000
  -0.002713  -0.004929  0.000000
  -0.003539  -0.004418  0.000000
  -0.004341  -0.003803  0.000000
  -0.003771  -0.004266  0.000000
  -0.004604  -0.003579  0.000000
  -0.004654  -0.003537  0.000000
  -0.003178  -0.004687  0.000000
  -0.004275  -0.003891  0.000000
  -0.003405  -0.004546  0.000000
  -0.004013  -0.004115  0.000000
  -0.002806  -0.004926  0.000000
  -0.003644  -0.004398  0.000000
  -0.002757  -0.004958  0.000000
  -0.004209  -0.003978  0.000000
  -0.004505  -0.003727  0.000000
  -0.004657  -0.003591  0.000000
  -0.003278  -0.004661  0.000000
  -0.003877  -0.004245  0.000000
  -0.003014  -0.004827  0.000000
  -0.003506  -0.004516  0.000000
  -0.002895  -0.004900  0.000000
  -0.004706  -0.003557  0.000000
  -0.004612  -0.003661  0.000000
  -0.003745  -0.004370  0.000000
  -0.004120  -0.004090  0.000000
  -0.003378  -0.004632  0.000000
  -0.002801  -0.004988  0.000000
  -0.002848  -0.004963  0.000000
  -0.003139  -0.004794  0.000000
  -0.003981  -0.004217  0.000000
  -0.003610  -0.004499  0.000000
  -0.004385  -0.003902  0.000000
  -0.004709  -0.003620  0.000000
  -0.004758  -0.003577  0.000000
  -0.003850  -0.004347  0.000000
  -0.003254  -0.004762  0.000000
  -0.004319  -0.003989  0.000000
  -0.003479  -0.004619  0.000000
  -0.004227  -0.004066  0.000000
  -0.002895  -0.004983  0.000000
  -0.004511  -0.003835  0.000000
  -0.002845  -0.005017  0.000000
  -0.003712  -0.004470  0.000000
  -0.004088  -0.004194  0.000000
  -0.004605  -0.003773  0.000000
  -0.002985  -0.004958  0.000000
  -0.003354  -0.004736  0.000000
  -0.004761  -0.003641  0.000000
  -0.003955  -0.004321  0.000000
  -0.004811  -0.003597  0.000000
  -0.003090  -0.004905  0.000000
  -0.003582  -0.004592  0.000000
  -0.004701  -0.003707  0.000000
  -0.003817  -0.004450  0.000000
  -0.002889  -0.005046  0.000000
  -0.004193  -0.004165  0.000000
  -0.002937  -0.005020  0.000000
  -0.003442  -0.004718  0.000000
  -0.004503  -0.003921  0.000000
  -0.003214  -0.004873  0.000000
  -0.004055  -0.004297  0.000000
  -0.004427  -0.004002  0.000000
  -0.003686  -0.004574  0.000000
  -0.004822  -0.003655  0.000000
  -0.004864  -0.003616  0.000000
  -0.002984  -0.005041  0.000000
  -0.003926  -0.004425  0.000000
  -0.002934  -0.005075  0.000000
  -0.004371  -0.004082  0.000000
  -0.003328  -0.004840  0.000000
  -0.004287  -0.004153  0.000000
  -0.003547  -0.004703  0.000000
  -0.004161  -0.004268  0.000000
  -0.003788  -0.004548  0.000000
  -0.004865  -0.003672  0.000000
  -0.003180  -0.004960  0.000000
  -0.004917  -0.003636  0.000000
  -0.003418  -0.004819  0.000000
  -0.004811  -0.003739  0.000000
  -0.003080  -0.005030  0.000000
  -0.004028  -0.004400  0.000000
  -0.003649  -0.004674  0.000000
  -0.004691  -0.003865  0.000000
  -0.002979  -0.005103  0.000000
  -0.003027  -0.005081  0.000000
  -0.004615  -0.003943  0.000000
  -0.003894  -0.004529  0.000000
  -0.004535  -0.004025  0.000000
  -0.003520  -0.004793  0.000000
  -0.003752  -0.004647  0.000000
  -0.004461  -0.004105  0.000000
  -0.004921  -0.003699  0.000000
  -0.004134  -0.004373  0.000000
  -0.004971  -0.003655  0.000000
  -0.003067  -0.005100  0.000000
  -0.004390  -0.004189  0.000000
  -0.003025  -0.005132  0.000000
  -0.003280  -0.004982  0.000000
  -0.004310  -0.004258  0.000000
  -0.004228  -0.004325  0.000000
  -0.004001  -0.004504  0.000000
  -0.003396  -0.004921  0.000000
  -0.003622  -0.004777  0.000000
  -0.004972  -0.003711  0.000000
  -0.003858  -0.004631  0.000000
  -0.005024  -0.003673  0.000000
  -0.003187  -0.005081  0.000000
  -0.004802  -0.003888  0.000000
  -0.003497  -0.004893  0.000000
  -0.003120  -0.005125  0.000000
  -0.003071  -0.005160  0.000000
  -0.003724  -0.004751  0.000000
  -0.004724  -0.003970  0.000000
  -0.004924  -0.003789  0.000000
  -0.004645  -0.004049  0.000000
  -0.003963  -0.004604  0.000000
  -0.004568  -0.004129  0.000000
  -0.004131  -0.004489  0.000000
  -0.003586  -0.004879  0.000000
  -0.004500  -0.004204  0.000000
  -0.004416  -0.004276  0.000000
  -0.005029  -0.003738  0.000000
  -0.005078  -0.003692  0.000000
  -0.004333  -0.004349  0.000000
  -0.003160  -0.005158  0.000000
  -0.003830  -0.004731  0.000000
  -0.003117  -0.005188  0.000000
  -0.003453  -0.004991  0.000000
  -0.004259  -0.004429  0.000000
  -0.003690  -0.004852  0.000000
  -0.003379  -0.005054  0.000000
  -0.004085  -0.004587  0.000000
  -0.004913  -0.003911  0.000000
  -0.003280  -0.005137  0.000000
  -0.005084  -0.003756  0.000000
  -0.003935  -0.004709  0.000000
  -0.005132  -0.003710  0.000000
  -0.003212  -0.005181  0.000000
  -0.004835  -0.003993  0.000000
  -0.003163  -0.005216  0.000000
  -0.005025  -0.003826  0.000000
  -0.003554  -0.004980  0.000000
  -0.004753  -0.004076  0.000000
  -0.004677  -0.004153  0.000000
  -0.003795  -0.004834  0.000000
  -0.004600  -0.004235  0.000000
  -0.004521  -0.004312  0.000000
  -0.004041  -0.004686  0.000000
  -0.004438  -0.004383  0.000000
  -0.005142  -0.003767  0.000000
  -0.004194  -0.004579  0.000000
  -0.003662  -0.004957  0.000000
  -0.005187  -0.003728  0.000000
  -0.003253  -0.005214  0.000000
  -0.003209  -0.005244  0.000000
  -0.004273  -0.004538  0.000000
  -0.004360  -0.004471  0.000000
  -0.003903  -0.004813  0.000000
  -0.003494  -0.005100  0.000000
  -0.005116  -0.003848  0.000000
  -0.003760  -0.004937  0.000000
  -0.005023  -0.003937  0.000000
  -0.003374  -0.005191  0.000000
  -0.003306  -0.005235  0.000000
  -0.004945  -0.004021  0.000000
  -0.005193  -0.003793  0.000000
  -0.005241  -0.003746  0.000000
  -0.003256  -0.005272  0.000000
  -0.004864  -0.004100  0.000000
  -0.004140  -0.004689  0.000000
  -0.004007  -0.004790  0.000000
  -0.004786  -0.004182  0.000000
  -0.004707  -0.004260  0.000000
  -0.003631  -0.005061  0.000000
  -0.003864  -0.004911  0.000000
  -0.004629  -0.004341  0.000000
  -0.004545  -0.004411  0.000000
  -0.004091  -0.004768  0.000000
  -0.003347  -0.005267  0.000000
  -0.004470  -0.004493  0.000000
  -0.003303  -0.005299  0.000000
  -0.005296  -0.003764  0.000000
  -0.005248  -0.003811  0.000000
  -0.003731  -0.005041  0.000000
  -0.004382  -0.004574  0.000000
  -0.004257  -0.004671  0.000000
  -0.003968  -0.004889  0.000000
  -0.005222  -0.003875  0.000000
  -0.005131  -0.003966  0.000000
  -0.003401  -0.005283  0.000000
  -0.005056  -0.004043  0.000000
  -0.004973  -0.004128  0.000000
  -0.003836  -0.005017  0.000000
  -0.003482  -0.005247  0.000000
  -0.003351  -0.005326  0.000000
  -0.005351  -0.003781  0.000000
  -0.005303  -0.003828  0.000000
  -0.004897  -0.004205  0.000000
  -0.003601  -0.005185  0.000000
  -0.004816  -0.004284  0.000000
  -0.004076  -0.004876  0.000000
  -0.004740  -0.004366  0.000000
  -0.004657  -0.004436  0.000000
  -0.003926  -0.004988  0.000000
  -0.003702  -0.005145  0.000000
  -0.004579  -0.004516  0.000000
  -0.003448  -0.005316  0.000000
  -0.003398  -0.005353  0.000000
  -0.004174  -0.004841  0.000000
  -0.005407  -0.003798  0.000000
  -0.005359  -0.003846  0.000000
  -0.004507  -0.004597  0.000000
  -0.005308  -0.003899  0.000000
  -0.003807  -0.005121  0.000000
  -0.004428  -0.004676  0.000000
  -0.005252  -0.003977  0.000000
  -0.004035  -0.004978  0.000000
  -0.005167  -0.004072  0.000000
  -0.003496  -0.005342  0.000000
  -0.005084  -0.004152  0.000000
  -0.003446  -0.005380  0.000000
  -0.004363  -0.004762  0.000000
  -0.005007  -0.004234  0.000000
  -0.004281  -0.004828  0.000000
  -0.004926  -0.004312  0.000000
  -0.005462  -0.003815  0.000000
  -0.004123  -0.004948  0.000000
  -0.005422  -0.003858  0.000000
  -0.003912  -0.005097  0.000000
  -0.004851  -0.004387  0.000000
  -0.003692  -0.005247  0.000000
  -0.004769  -0.004465  0.000000
  -0.003592  -0.005322  0.000000
  -0.004689  -0.004543  0.000000
  -0.004013  -0.005057  0.000000
  -0.003791  -0.005208  0.000000
  -0.004612  -0.004623  0.000000
  -0.003495  -0.005407  0.000000
  -0.003546  -0.005377  0.000000
  -0.005518  -0.003831  0.000000
  -0.005470  -0.003880  0.000000
  -0.004537  -0.004705  0.000000
  -0.005414  -0.003953  0.000000
  -0.003892  -0.005185  0.000000
  -0.004460  -0.004783  0.000000
  -0.005278  -0.004095  0.000000
  -0.004115  -0.005045  0.000000
  -0.005193  -0.004181  0.000000
  -0.003585  -0.005399  0.000000
  -0.004389  -0.004853  0.000000
  -0.005119  -0.004256  0.000000
  -0.003543  -0.005433  0.000000
  -0.005036  -0.004335  0.000000
  -0.004214  -0.005001  0.000000
  -0.005574  -0.003847  0.000000
  -0.004960  -0.004419  0.000000
  -0.005534  -0.003891  0.000000
  -0.003994  -0.005166  0.000000
  -0.004878  -0.004496  0.000000
  -0.003689  -0.005368  0.000000
  -0.004798  -0.004573  0.000000
  -0.003772  -0.005331  0.000000
  -0.004317  -0.004960  0.000000
  -0.004719  -0.004652  0.000000
  -0.003641  -0.005420  0.000000
  -0.003592  -0.005459  0.000000
  -0.004097  -0.005130  0.000000
  -0.004647  -0.004727  0.000000
  -0.003866  -0.005301  0.000000
  -0.005630  -0.003863  0.000000
  -0.005583  -0.003913  0.000000
  -0.004568  -0.004806  0.000000
  -0.005527  -0.003987  0.000000
  -0.005389  -0.004125  0.000000
  -0.005306  -0.004204  0.000000
  -0.004495  -0.004889  0.000000
  -0.003690  -0.005446  0.000000
  -0.003962  -0.005271  0.000000
  -0.004200  -0.005110  0.000000
  -0.005228  -0.004288  0.000000
  -0.003641  -0.005485  0.000000
  -0.005146  -0.004365  0.000000
  -0.005066  -0.004443  0.000000
  -0.004987  -0.004526  0.000000
  -0.005686  -0.003879  0.000000
  -0.005639  -0.003929  0.000000
  -0.003748  -0.005443  0.000000
  -0.004302  -0.005070  0.000000
  -0.004906  -0.004604  0.000000
  -0.004829  -0.004680  0.000000
  -0.004069  -0.005249  0.000000
  -0.004417  -0.005002  0.000000
  -0.003690  -0.005511  0.000000
  -0.004752  -0.004762  0.000000
  -0.004677  -0.004834  0.000000
  -0.005692  -0.003936  0.000000
  -0.004169  -0.005216  0.000000
  -0.003933  -0.005376  0.000000
  -0.005742  -0.003894  0.000000
  -0.003847  -0.005437  0.000000
  -0.005637  -0.004008  0.000000
  -0.004600  -0.004914  0.000000
  -0.005515  -0.004131  0.000000
  -0.005414  -0.004235  0.000000
  -0.003788  -0.005496  0.000000
  -0.004520  -0.004991  0.000000
  -0.005341  -0.004309  0.000000
  -0.005257  -0.004387  0.000000
  -0.003740  -0.005537  0.000000
  -0.005176  -0.004468  0.000000
  -0.004276  -0.005193  0.000000
  -0.005099  -0.004551  0.000000
  -0.005021  -0.004628  0.000000
  -0.005799  -0.003909  0.000000
  -0.005753  -0.003960  0.000000
  -0.004939  -0.004706  0.000000
  -0.004038  -0.005388  0.000000
  -0.003830  -0.005525  0.000000
  -0.004380  -0.005155  0.000000
  -0.004863  -0.004786  0.000000
  -0.003789  -0.005562  0.000000
  -0.004148  -0.005333  0.000000
  -0.004786  -0.004867  0.000000
  -0.004705  -0.004943  0.000000
  -0.005804  -0.003968  0.000000
  -0.005856  -0.003924  0.000000
  -0.004255  -0.005288  0.000000
  -0.004519  -0.005098  0.000000
  -0.005631  -0.004155  0.000000
  -0.005528  -0.004255  0.000000
  -0.003954  -0.005494  0.000000
  -0.005445  -0.004336  0.000000
  -0.004628  -0.005023  0.000000
  -0.003888  -0.005546  0.000000
  -0.005366  -0.004419  0.000000
  -0.005756  -0.004051  0.000000
  -0.005288  -0.004495  0.000000
  -0.003839  -0.005587  0.000000
  -0.005210  -0.004578  0.000000
  -0.005130  -0.004660  0.000000
  -0.004360  -0.005265  0.000000
  -0.005049  -0.004737  0.000000
  -0.005913  -0.003939  0.000000
  -0.005859  -0.003996  0.000000
  -0.004971  -0.004819  0.000000
  -0.003932  -0.005577  0.000000
  -0.003890  -0.005612  0.000000
  -0.004896  -0.004893  0.000000
  -0.004222  -0.005395  0.000000
  -0.004465  -0.005230  0.000000
  -0.004135  -0.005464  0.000000
  -0.004814  -0.004970  0.000000
  -0.005718  -0.004200  0.000000
  -0.004737  -0.005051  0.000000
  -0.005970  -0.003953  0.000000
  -0.005639  -0.004283  0.000000
  -0.005925  -0.004005  0.000000
  -0.005556  -0.004365  0.000000
  -0.004057  -0.005546  0.000000
  -0.003989  -0.005595  0.000000
  -0.005479  -0.004443  0.000000
  -0.004571  -0.005194  0.000000
  -0.004659  -0.005132  0.000000
  -0.005399  -0.004522  0.000000
  -0.003940  -0.005636  0.000000
  -0.005322  -0.004602  0.000000
  -0.005239  -0.004680  0.000000
  -0.004322  -0.005402  0.000000
  -0.005159  -0.004762  0.000000
  -0.005897  -0.004092  0.000000
  -0.006028  -0.003967  0.000000
  -0.005082  -0.004846  0.000000
  -0.004438  -0.005347  0.000000
  -0.005980  -0.004029  0.000000
  -0.004034  -0.005626  0.000000
  -0.003991  -0.005661  0.000000
  -0.005005  -0.004928  0.000000
  -0.005819  -0.004204  0.000000
  -0.004923  -0.005003  0.000000
  -0.004236  -0.005510  0.000000
  -0.004847  -0.005079  0.000000
  -0.005746  -0.004308  0.000000
  -0.004157  -0.005591  0.000000
  -0.006085  -0.003981  0.000000
  -0.005667  -0.004394  0.000000
  -0.004769  -0.005161  0.000000
  -0.006040  -0.004033  0.000000
  -0.004090  -0.005643  0.000000
  -0.005592  -0.004472  0.000000
  -0.004579  -0.005307  0.000000
  -0.005510  -0.004553  0.000000
  -0.004672  -0.005244  0.000000
  -0.004042  -0.005685  0.000000
  -0.005431  -0.004631  0.000000
  -0.005348  -0.004713  0.000000
  -0.004408  -0.005455  0.000000
  -0.005271  -0.004788  0.000000
  -0.005188  -0.004866  0.000000
  -0.006143  -0.003994  0.000000
  -0.006019  -0.004123  0.000000
  -0.004136  -0.005673  0.000000
  -0.005116  -0.004953  0.000000
  -0.006096  -0.004056  0.000000
  -0.004093  -0.005709  0.000000
  -0.005032  -0.005029  0.000000
  -0.005936  -0.004230  0.000000
  -0.004338  -0.005554  0.000000
  -0.004953  -0.005114  0.000000
  -0.005861  -0.004332  0.000000
  -0.004258  -0.005635  0.000000
  -0.004873  -0.005195  0.000000
  -0.005782  -0.004417  0.000000
  -0.004552  -0.005437  0.000000
  -0.006201  -0.004007  0.000000
  -0.004193  -0.005690  0.000000
  -0.005703  -0.004503  0.000000
  -0.006156  -0.004060  0.000000
  -0.005622  -0.004582  0.000000
  -0.004145  -0.005733  0.000000
  -0.005542  -0.004663  0.000000
  -0.004790  -0.005282  0.000000
  -0.005460  -0.004741  0.000000
  -0.005381  -0.004822  0.000000
  -0.005299  -0.004899  0.000000
  -0.004715  -0.005368  0.000000
  -0.005220  -0.004982  0.000000
  -0.006130  -0.004148  0.000000
  -0.004238  -0.005719  0.000000
  -0.006259  -0.004020  0.000000
  -0.005142  -0.005063  0.000000
  -0.004197  -0.005756  0.000000
  -0.006211  -0.004082  0.000000
  -0.004440  -0.005598  0.000000
  -0.004353  -0.005668  0.000000
  -0.005063  -0.005145  0.000000
  -0.006048  -0.004276  0.000000
  -0.005976  -0.004351  0.000000
  -0.004983  -0.005225  0.000000
  -0.005896  -0.004437  0.000000
  -0.004659  -0.005477  0.000000
  -0.005735  -0.004600  0.000000
  -0.004296  -0.005736  0.000000
  -0.005818  -0.004524  0.000000
  -0.004573  -0.005550  0.000000
  -0.004902  -0.005307  0.000000
  -0.006317  -0.004032  0.000000
  -0.005655  -0.004685  0.000000
  -0.006273  -0.004086  0.000000
  -0.004249  -0.005779  0.000000
  -0.005572  -0.004764  0.000000
  -0.005494  -0.004842  0.000000
  -0.005410  -0.004923  0.000000
  -0.004826  -0.005391  0.000000
  -0.005333  -0.005008  0.000000
  -0.004348  -0.005758  0.000000
  -0.006246  -0.004172  0.000000
  -0.005252  -0.005088  0.000000
  -0.004752  -0.005476  0.000000
  -0.006375  -0.004045  0.000000
  -0.004301  -0.005802  0.000000
  -0.006327  -0.004107  0.000000
  -0.005175  -0.005172  0.000000
  -0.006161  -0.004297  0.000000
  -0.005094  -0.005252  0.000000
  -0.006011  -0.004461  0.000000
  -0.006096  -0.004379  0.000000
  -0.004461  -0.005735  0.000000
  -0.005933  -0.004546  0.000000
  -0.005848  -0.004627  0.000000
  -0.005016  -0.005335  0.000000
  -0.004679  -0.005590  0.000000
  -0.005769  -0.004710  0.000000
  -0.006434  -0.004056  0.000000
  -0.004353  -0.005825  0.000000
  -0.005685  -0.004791  0.000000
  -0.004594  -0.005662  0.000000
  -0.004404  -0.005794  0.000000
  -0.006391  -0.004111  0.000000
  -0.004937  -0.005416  0.000000
  -0.005605  -0.004874  0.000000
  -0.005522  -0.004953  0.000000
  -0.005440  -0.005034  0.000000
  -0.004453  -0.005803  0.000000
  -0.005363  -0.005118  0.000000
  -0.006361  -0.004195  0.000000
  -0.004862  -0.005517  0.000000
  -0.004406  -0.005847  0.000000
  -0.005282  -0.005198  0.000000
  -0.006493  -0.004068  0.000000
  -0.006445  -0.004131  0.000000
  -0.006278  -0.004315  0.000000
  -0.005206  -0.005282  0.000000
  -0.006204  -0.004405  0.000000
  -0.005126  -0.005362  0.000000
  -0.006039  -0.004572  0.000000
  -0.006125  -0.004492  0.000000
  -0.004506  -0.005824  0.000000
  -0.004786  -0.005630  0.000000
  -0.005875  -0.004738  0.000000
  -0.005961  -0.004659  0.000000
  -0.004593  -0.005776  0.000000
  -0.004459  -0.005869  0.000000
  -0.005049  -0.005445  0.000000
  -0.005796  -0.004822  0.000000
  -0.004701  -0.005704  0.000000
  -0.006551  -0.004079  0.000000
  -0.005719  -0.004900  0.000000
  -0.006509  -0.004134  0.000000
  -0.004975  -0.005514  0.000000
  -0.005634  -0.004983  0.000000
  -0.005553  -0.005063  0.000000
  -0.005472  -0.005145  0.000000
  -0.004558  -0.005854  0.000000
  -0.005394  -0.005228  0.000000
  -0.006481  -0.004220  0.000000
  -0.004512  -0.005891  0.000000
  -0.006610  -0.004090  0.000000
  -0.005318  -0.005308  0.000000
  -0.006563  -0.004154  0.000000
  -0.006393  -0.004339  0.000000
  -0.006310  -0.004424  0.000000
  -0.005237  -0.005389  0.000000
  -0.006154  -0.004596  0.000000
  -0.006238  -0.004516  0.000000
  -0.004612  -0.005867  0.000000
  -0.006073  -0.004682  0.000000
  -0.004894  -0.005672  0.000000
  -0.005990  -0.004765  0.000000
  -0.005160  -0.005472  0.000000
  -0.004565  -0.005913  0.000000
  -0.004807  -0.005744  0.000000
  -0.005910  -0.004849  0.000000
  -0.004703  -0.005821  0.000000
  -0.006670  -0.004101  0.000000
  -0.005832  -0.004933  0.000000
  -0.005082  -0.005556  0.000000
  -0.006627  -0.004157  0.000000
  -0.005747  -0.005012  0.000000
  -0.004997  -0.005627  0.000000
  -0.005665  -0.005094  0.000000
  -0.005583  -0.005175  0.000000
  -0.005507  -0.005256  0.000000
  -0.004665  -0.005898  0.000000
  -0.004619  -0.005934  0.000000
  -0.006600  -0.004245  0.000000
  -0.006729  -0.004111  0.000000
  -0.005430  -0.005338  0.000000
  -0.006687  -0.004167  0.000000
  -0.006509  -0.004360  0.000000
  -0.006427  -0.004445  0.000000
  -0.005349  -0.005419  0.000000
  -0.006348  -0.004533  0.000000
  -0.006264  -0.004616  0.000000
  -0.005263  -0.005495  0.000000
  -0.006182  -0.004701  0.000000
  -0.004719  -0.005909  0.000000
  -0.006104  -0.004795  0.000000
  -0.006019  -0.004876  0.000000
  -0.004913  -0.005783  0.000000
  -0.004672  -0.005956  0.000000
  -0.005192  -0.005582  0.000000
  -0.005938  -0.004960  0.000000
  -0.006742  -0.004170  0.000000
  -0.006788  -0.004121  0.000000
  -0.005106  -0.005655  0.000000
  -0.005859  -0.005046  0.000000
  -0.004819  -0.005876  0.000000
  -0.005779  -0.005123  0.000000
  -0.005696  -0.005204  0.000000
  -0.006699  -0.004260  0.000000
  -0.005616  -0.005289  0.000000
  -0.004773  -0.005943  0.000000
  -0.004726  -0.005976  0.000000
  -0.005538  -0.005373  0.000000
  -0.006848  -0.004131  0.000000
  -0.005453  -0.005451  0.000000
  -0.006628  -0.004377  0.000000
  -0.006806  -0.004188  0.000000
  -0.005373  -0.005531  0.000000
  -0.006377  -0.004647  0.000000
  -0.005036  -0.005792  0.000000
  -0.006466  -0.004559  0.000000
  -0.006297  -0.004728  0.000000
  -0.006213  -0.004810  0.000000
  -0.006552  -0.004478  0.000000
  -0.004820  -0.005954  0.000000
  -0.005288  -0.005608  0.000000
  -0.006131  -0.004902  0.000000
  -0.004781  -0.005997  0.000000
  -0.006051  -0.004988  0.000000
  -0.004935  -0.005898  0.000000
  -0.005215  -0.005692  0.000000
  -0.006862  -0.004190  0.000000
  -0.006907  -0.004141  0.000000
  -0.005974  -0.005070  0.000000
  -0.005893  -0.005151  0.000000
  -0.005147  -0.005760  0.000000
  -0.005813  -0.005235  0.000000
  -0.004881  -0.005970  0.000000
  -0.005730  -0.005316  0.000000
  -0.006820  -0.004281  0.000000
  -0.004835  -0.006017  0.000000
  -0.005652  -0.005399  0.000000
  -0.006967  -0.004150  0.000000
  -0.005571  -0.005482  0.000000
  -0.006926  -0.004207  0.000000
  -0.006742  -0.004406  0.000000
  -0.005402  -0.005630  0.000000
  -0.005492  -0.005566  0.000000
  -0.006493  -0.004674  0.000000
  -0.004936  -0.005990  0.000000
  -0.006411  -0.004759  0.000000
  -0.006327  -0.004841  0.000000
  -0.006580  -0.004593  0.000000
  -0.006667  -0.004511  0.000000
  -0.004890  -0.006037  0.000000
  -0.006250  -0.004930  0.000000
  -0.005328  -0.005718  0.000000
  -0.006167  -0.005014  0.000000
  -0.005146  -0.005865  0.000000
  -0.006088  -0.005099  0.000000
  -0.007027  -0.004158  0.000000
  -0.005040  -0.005956  0.000000
  -0.005251  -0.005803  0.000000
  -0.006007  -0.005182  0.000000
  -0.006986  -0.004216  0.000000
  -0.005923  -0.005264  0.000000
  -0.005842  -0.005348  0.000000
  -0.004994  -0.006018  0.000000
  -0.004944  -0.006057  0.000000
  -0.006941  -0.004300  0.000000
  -0.005763  -0.005427  0.000000
  -0.005684  -0.005512  0.000000
  -0.007087  -0.004167  0.000000
  -0.007053  -0.004217  0.000000
  -0.006857  -0.004433  0.000000
  -0.005606  -0.005593  0.000000
  -0.005038  -0.006039  0.000000
  -0.006442  -0.004867  0.000000
  -0.006527  -0.004784  0.000000
  -0.006605  -0.004707  0.000000
  -0.005237  -0.005895  0.000000
  -0.005525  -0.005675  0.000000
  -0.006692  -0.004626  0.000000
  -0.004999  -0.006077  0.000000
  -0.006363  -0.004958  0.000000
  -0.006781  -0.004546  0.000000
  -0.006281  -0.005043  0.000000
  -0.005443  -0.005760  0.000000
  -0.006197  -0.005125  0.000000
  -0.007103  -0.004224  0.000000
  -0.007147  -0.004175  0.000000
  -0.005163  -0.005985  0.000000
  -0.006120  -0.005212  0.000000
  -0.006034  -0.005290  0.000000
  -0.005364  -0.005844  0.000000
  -0.005100  -0.006048  0.000000
  -0.005955  -0.005376  0.000000
  -0.005055  -0.006096  0.000000
  -0.005880  -0.005457  0.000000
  -0.007063  -0.004318  0.000000
  -0.005798  -0.005539  0.000000
  -0.007207  -0.004183  0.000000
  -0.005719  -0.005624  0.000000
  -0.007168  -0.004241  0.000000
  -0.006972  -0.004461  0.000000
  -0.005150  -0.006073  0.000000
  -0.005638  -0.005706  0.000000
  -0.006557  -0.004898  0.000000
  -0.006716  -0.004741  0.000000
  -0.006642  -0.004816  0.000000
  -0.005110  -0.006115  0.000000
  -0.006885  -0.004573  0.000000
  -0.006476  -0.004984  0.000000
  -0.006806  -0.004662  0.000000
  -0.005556  -0.005788  0.000000
  -0.006396  -0.005071  0.000000
  -0.006313  -0.005153  0.000000
  -0.006230  -0.005237  0.000000
  -0.007267  -0.004190  0.000000
  -0.005477  -0.005872  0.000000
  -0.007231  -0.004241  0.000000
  -0.006151  -0.005324  0.000000
  -0.005211  -0.006085  0.000000
  -0.005286  -0.006030  0.000000
  -0.006070  -0.005402  0.000000
  -0.005399  -0.005956  0.000000
  -0.005166  -0.006134  0.000000
  -0.005993  -0.005487  0.000000
  -0.005911  -0.005571  0.000000
  -0.005828  -0.005652  0.000000
  -0.007328  -0.004198  0.000000
  -0.007289  -0.004256  0.000000
  -0.007223  -0.004333  0.000000
  -0.005264  -0.006111  0.000000
  -0.005750  -0.005737  0.000000
  -0.005221  -0.006152  0.000000
  -0.006666  -0.004931  0.000000
  -0.006834  -0.004764  0.000000
  -0.006999  -0.004595  0.000000
  -0.005669  -0.005819  0.000000
  -0.006592  -0.005011  0.000000
  -0.006920  -0.004685  0.000000
  -0.006756  -0.004853  0.000000
  -0.006512  -0.005096  0.000000
  -0.007088  -0.004519  0.000000
  -0.006429  -0.005180  0.000000
  -0.005591  -0.005900  0.000000
  -0.007172  -0.004438  0.000000
  -0.006346  -0.005263  0.000000
  -0.007388  -0.004204  0.000000
  -0.005322  -0.006120  0.000000
  -0.006267  -0.005349  0.000000
  -0.007353  -0.004256  0.000000
  -0.005512  -0.005981  0.000000
  -0.006185  -0.005432  0.000000
  -0.005277  -0.006170  0.000000
  -0.005409  -0.006072  0.000000
  -0.006101  -0.005514  0.000000
  -0.006025  -0.005601  0.000000
  -0.005942  -0.005682  0.000000
  -0.007448  -0.004211  0.000000
  -0.005859  -0.005764  0.000000
  -0.007410  -0.004270  0.000000
  -0.005377  -0.006147  0.000000
  -0.007348  -0.004349  0.000000
  -0.005333  -0.006188  0.000000
  -0.006783  -0.004953  0.000000
  -0.005781  -0.005850  0.000000
  -0.006952  -0.004790  0.000000
  -0.006870  -0.004876  0.000000
  -0.007036  -0.004707  0.000000
  -0.006707  -0.005041  0.000000
  -0.006622  -0.005123  0.000000
  -0.007111  -0.004635  0.000000
  -0.005705  -0.005930  0.000000
  -0.006544  -0.005210  0.000000
  -0.007283  -0.004467  0.000000
  -0.007202  -0.004556  0.000000
  -0.006461  -0.005294  0.000000
  -0.007509  -0.004217  0.000000
  -0.006376  -0.005376  0.000000
  -0.005434  -0.006155  0.000000
  -0.005623  -0.006013  0.000000
  -0.007478  -0.004270  0.000000
  -0.006299  -0.005462  0.000000
  -0.005390  -0.006206  0.000000
  -0.006215  -0.005544  0.000000
  -0.006132  -0.005626  0.000000
  -0.005536  -0.006116  0.000000
  -0.006055  -0.005715  0.000000
  -0.007570  -0.004223  0.000000
  -0.007528  -0.004274  0.000000
  -0.005977  -0.005793  0.000000
  -0.005494  -0.006180  0.000000
  -0.005446  -0.006223  0.000000
  -0.005896  -0.005877  0.000000
  -0.007486  -0.004352  0.000000
  -0.006812  -0.005065  0.000000
  -0.006898  -0.004983  0.000000
  -0.006985  -0.004903  0.000000
  -0.006737  -0.005154  0.000000
  -0.006652  -0.005236  0.000000
  -0.007229  -0.004658  0.000000
  -0.007147  -0.004745  0.000000
  -0.005818  -0.005962  0.000000
  -0.007390  -0.004485  0.000000
  -0.007073  -0.004827  0.000000
  -0.007317  -0.004581  0.000000
  -0.006576  -0.005324  0.000000
  -0.007630  -0.004229  0.000000
  -0.005735  -0.006044  0.000000
  -0.006491  -0.005406  0.000000
  -0.005539  -0.006200  0.000000
  -0.006407  -0.005488  0.000000
  -0.007594  -0.004289  0.000000
  -0.005503  -0.006240  0.000000
  -0.006330  -0.005577  0.000000
  -0.006246  -0.005658  0.000000
  -0.005665  -0.006141  0.000000
  -0.006170  -0.005738  0.000000
  -0.005604  -0.006205  0.000000
  -0.007691  -0.004234  0.000000
  -0.006091  -0.005822  0.000000
  -0.007653  -0.004285  0.000000
  -0.005560  -0.006257  0.000000
  -0.006010  -0.005907  0.000000
  -0.006928  -0.005092  0.000000
  -0.006844  -0.005176  0.000000
  -0.005928  -0.005990  0.000000
  -0.007083  -0.004943  0.000000
  -0.007012  -0.005019  0.000000
  -0.007265  -0.004763  0.000000
  -0.007510  -0.004501  0.000000
  -0.006767  -0.005266  0.000000
  -0.006682  -0.005348  0.000000
  -0.007188  -0.004854  0.000000
  -0.005848  -0.006075  0.000000
  -0.007633  -0.004374  0.000000
  -0.007435  -0.004596  0.000000
  -0.007752  -0.004239  0.000000
  -0.005655  -0.006229  0.000000
  -0.007356  -0.004685  0.000000
  -0.006524  -0.005512  0.000000
  -0.006606  -0.005438  0.000000
  -0.005617  -0.006273  0.000000
  -0.007716  -0.004299  0.000000
  -0.006444  -0.005600  0.000000
  -0.006362  -0.005682  0.000000
  -0.005777  -0.006170  0.000000
  -0.006283  -0.005769  0.000000
  -0.005717  -0.006237  0.000000
  -0.007813  -0.004243  0.000000
  -0.007775  -0.004291  0.000000
  -0.006206  -0.005851  0.000000
  -0.005674  -0.006289  0.000000
  -0.006124  -0.005936  0.000000
  -0.007280  -0.004869  0.000000
  -0.006947  -0.005209  0.000000
  -0.006042  -0.006019  0.000000
  -0.007202  -0.004960  0.000000
  -0.007753  -0.004366  0.000000
  -0.007039  -0.005133  0.000000
  -0.006883  -0.005288  0.000000
  -0.006800  -0.005370  0.000000
  -0.005961  -0.006103  0.000000
  -0.007127  -0.005053  0.000000
  -0.005769  -0.006260  0.000000
  -0.007377  -0.004802  0.000000
  -0.007874  -0.004247  0.000000
  -0.007554  -0.004617  0.000000
  -0.006722  -0.005460  0.000000
  -0.007829  -0.004309  0.000000
  -0.007475  -0.004708  0.000000
  -0.006639  -0.005542  0.000000
  -0.005731  -0.006305  0.000000
  -0.006556  -0.005626  0.000000
  -0.006477  -0.005714  0.000000
  -0.005896  -0.006204  0.000000
  -0.006400  -0.005794  0.000000
  -0.007710  -0.004500  0.000000
  -0.005832  -0.006268  0.000000
  -0.007935  -0.004251  0.000000
  -0.006320  -0.005881  0.000000
  -0.007894  -0.004305  0.000000
  -0.005789  -0.006320  0.000000
  -0.006238  -0.005965  0.000000
  -0.007066  -0.005217  0.000000
  -0.007152  -0.005144  0.000000
  -0.007320  -0.004982  0.000000
  -0.006996  -0.005313  0.000000
  -0.006176  -0.006049  0.000000
  -0.007241  -0.005072  0.000000
  -0.007389  -0.004920  0.000000
  -0.007862  -0.004401  0.000000
  -0.005885  -0.006290  0.000000
  -0.006829  -0.005483  0.000000
  -0.006915  -0.005402  0.000000
  -0.007996  -0.004255  0.000000
  -0.005846  -0.006336  0.000000
  -0.007594  -0.004731  0.000000
  -0.007696  -0.004620  0.000000
  -0.006755  -0.005573  0.000000
  -0.007961  -0.004316  0.000000
  -0.007487  -0.004850  0.000000
  -0.006670  -0.005657  0.000000
  -0.006593  -0.005739  0.000000
  -0.005946  -0.006291  0.000000
  -0.006130  -0.006145  0.000000
  -0.006022  -0.006233  0.000000
  -0.006513  -0.005826  0.000000
  -0.006430  -0.005909  0.000000
  -0.008057  -0.004258  0.000000
  -0.005904  -0.006350  0.000000
  -0.006275  -0.006058  0.000000
  -0.006350  -0.005994  0.000000
  -0.008023  -0.004320  0.000000
  -0.007807  -0.004572  0.000000
  -0.007085  -0.005334  0.000000
  -0.007177  -0.005259  0.000000
  -0.007016  -0.005424  0.000000
  -0.006004  -0.006312  0.000000
  -0.007263  -0.005188  0.000000
  -0.007445  -0.005004  0.000000
  -0.006856  -0.005585  0.000000
  -0.007986  -0.004409  0.000000
  -0.008118  -0.004261  0.000000
  -0.006944  -0.005514  0.000000
  -0.007355  -0.005111  0.000000
  -0.006777  -0.005673  0.000000
  -0.005962  -0.006365  0.000000
  -0.008089  -0.004311  0.000000
  -0.007919  -0.004523  0.000000
  -0.007534  -0.004950  0.000000
  -0.006708  -0.005767  0.000000
  -0.006246  -0.006171  0.000000
  -0.007793  -0.004692  0.000000
  -0.006062  -0.006326  0.000000
  -0.006630  -0.005853  0.000000
  -0.006149  -0.006264  0.000000
  -0.006546  -0.005935  0.000000
  -0.008180  -0.004263  0.000000
  -0.006020  -0.006379  0.000000
  -0.006373  -0.006097  0.000000
  -0.006466  -0.006022  0.000000
  -0.008146  -0.004325  0.000000
  -0.008101  -0.004391  0.000000
  -0.007194  -0.005376  0.000000
  -0.007134  -0.005442  0.000000
  -0.007641  -0.004926  0.000000
  -0.006969  -0.005605  0.000000
  -0.007905  -0.004644  0.000000
  -0.007730  -0.004842  0.000000
  -0.006121  -0.006349  0.000000
  -0.006803  -0.005771  0.000000
  -0.007062  -0.005533  0.000000
  -0.008241  -0.004265  0.000000
  -0.007378  -0.005224  0.000000
  -0.006078  -0.006393  0.000000
  -0.006894  -0.005696  0.000000
  -0.007469  -0.005147  0.000000
  -0.008214  -0.004321  0.000000
  -0.007285  -0.005338  0.000000
  -0.007559  -0.005067  0.000000
  -0.006562  -0.006031  0.000000
  -0.006178  -0.006353  0.000000
  -0.008017  -0.004595  0.000000
  -0.008302  -0.004267  0.000000
  -0.006136  -0.006407  0.000000
  -0.006487  -0.006122  0.000000
  -0.007891  -0.004763  0.000000
  -0.008270  -0.004330  0.000000
  -0.006774  -0.005888  0.000000
  -0.007229  -0.005465  0.000000
  -0.006289  -0.006312  0.000000
  -0.006416  -0.006216  0.000000
  -0.006658  -0.006009  0.000000
  -0.007154  -0.005558  0.000000
  -0.007671  -0.005042  0.000000
  -0.006990  -0.005722  0.000000
  -0.006240  -0.006375  0.000000
  -0.007758  -0.004959  0.000000
  -0.008235  -0.004420  0.000000
  -0.007081  -0.005645  0.000000
  -0.008129  -0.004547  0.000000
  -0.008364  -0.004268  0.000000
  -0.006195  -0.006420  0.000000
  -0.007402  -0.005341  0.000000
  -0.007846  -0.004876  0.000000
  -0.006916  -0.005809  0.000000
  -0.008337  -0.004319  0.000000
  -0.008003  -0.004715  0.000000
  -0.007491  -0.005264  0.000000
  -0.007582  -0.005185  0.000000
  -0.006288  -0.006384  0.000000
  -0.006602  -0.006134  0.000000
  -0.006254  -0.006433  0.000000
  -0.008425  -0.004269  0.000000
  -0.008387  -0.004325  0.000000
  -0.007341  -0.005481  0.000000
  -0.008115  -0.004667  0.000000
  -0.006534  -0.006230  0.000000
  -0.006353  -0.006391  0.000000
  -0.008360  -0.004405  0.000000
  -0.007698  -0.005157  0.000000
  -0.007268  -0.005595  0.000000
  -0.006312  -0.006446  0.000000
  -0.007198  -0.005668  0.000000
  -0.008487  -0.004270  0.000000
  -0.007787  -0.005074  0.000000
  -0.006910  -0.005937  0.000000
  -0.006446  -0.006345  0.000000
  -0.007033  -0.005833  0.000000
  -0.007873  -0.004993  0.000000
  -0.006802  -0.006044  0.000000
  -0.007120  -0.005758  0.000000
  -0.008294  -0.004527  0.000000
  -0.008455  -0.004334  0.000000
  -0.007516  -0.005381  0.000000
  -0.007962  -0.004912  0.000000
  -0.008227  -0.004619  0.000000
  -0.007606  -0.005302  0.000000
  -0.008100  -0.004787  0.000000
  -0.006413  -0.006416  0.000000
  -0.006720  -0.006162  0.000000
  -0.006371  -0.006458  0.000000
  -0.008549  -0.004270  0.000000
  -0.006650  -0.006252  0.000000
  -0.007484  -0.005491  0.000000
  -0.006464  -0.006421  0.000000
  -0.008536  -0.004340  0.000000
  -0.006573  -0.006345  0.000000
  -0.008212  -0.004739  0.000000
  -0.007387  -0.005613  0.000000
  -0.006430  -0.006471  0.000000
  -0.007727  -0.005274  0.000000
  -0.008611  -0.004270  0.000000
  -0.007815  -0.005191  0.000000
  -0.007222  -0.005784  0.000000
  -0.007309  -0.005703  0.000000
  -0.007053  -0.005951  0.000000
  -0.007904  -0.005109  0.000000
  -0.008504  -0.004429  0.000000
  -0.007145  -0.005874  0.000000
  -0.006912  -0.006087  0.000000
  -0.007990  -0.005026  0.000000
  -0.006530  -0.006426  0.000000
  -0.008423  -0.004543  0.000000
  -0.008082  -0.004946  0.000000
  -0.008611  -0.004334  0.000000
  -0.006838  -0.006180  0.000000
  -0.006489  -0.006482  0.000000
  -0.008324  -0.004691  0.000000
  -0.006767  -0.006272  0.000000
  -0.007637  -0.005459  0.000000
  -0.008198  -0.004859  0.000000
  -0.006589  -0.006438  0.000000
  -0.008611  -0.004402  0.000000
  -0.008532  -0.004510  0.000000
  -0.006548  -0.006494  0.000000
  -0.006691  -0.006386  0.000000
  -0.007595  -0.005557  0.000000
  -0.007844  -0.005307  0.000000
  -0.007427  -0.005726  0.000000
  -0.007761  -0.005394  0.000000
  -0.007514  -0.005643  0.000000
  -0.007337  -0.005819  0.000000
  -0.007031  -0.006105  0.000000
  -0.007930  -0.005226  0.000000
  -0.007175  -0.005977  0.000000
  -0.008310  -0.004811  0.000000
  -0.007263  -0.005896  0.000000
  -0.008016  -0.005142  0.000000
  -0.008610  -0.004473  0.000000
  -0.006653  -0.006456  0.000000
  -0.008106  -0.005061  0.000000
  -0.006957  -0.006198  0.000000
  -0.006608  -0.006505  0.000000
  -0.008539  -0.004579  0.000000
  -0.008192  -0.004992  0.000000
  -0.006884  -0.006292  0.000000
  -0.008433  -0.004742  0.000000
  -0.006701  -0.006471  0.000000
  -0.008610  -0.004548  0.000000
  -0.008522  -0.004669  0.000000
  -0.006667  -0.006516  0.000000
  -0.008296  -0.004930  0.000000
  -0.006821  -0.006396  0.000000
  -0.007787  -0.005504  0.000000
  -0.007622  -0.005672  0.000000
  -0.007150  -0.006123  0.000000
  -0.007455  -0.005841  0.000000
  -0.007711  -0.005591  0.000000
  -0.007878  -0.005422  0.000000
  -0.007543  -0.005759  0.000000
  -0.006766  -0.006469  0.000000
  -0.007966  -0.005339  0.000000
  -0.007376  -0.005930  0.000000
  -0.008045  -0.005258  0.000000
  -0.007290  -0.006013  0.000000
  -0.008129  -0.005171  0.000000
  -0.008609  -0.004627  0.000000
  -0.007076  -0.006216  0.000000
  -0.006727  -0.006526  0.000000
  -0.008404  -0.004886  0.000000
  -0.008221  -0.005095  0.000000
  -0.008533  -0.004745  0.000000
  -0.007001  -0.006310  0.000000
  -0.006821  -0.006487  0.000000
  -0.008299  -0.005049  0.000000
  -0.006930  -0.006404  0.000000
  -0.008609  -0.004710  0.000000
  -0.006787  -0.006536  0.000000
  -0.008512  -0.004844  0.000000
  -0.008399  -0.004984  0.000000
  -0.007269  -0.006141  0.000000
  -0.006885  -0.006489  0.000000
  -0.007651  -0.005786  0.000000
  -0.007739  -0.005704  0.000000
  -0.007905  -0.005536  0.000000
  -0.007571  -0.005876  0.000000
  -0.007827  -0.005624  0.000000
  -0.007495  -0.005954  0.000000
  -0.007994  -0.005456  0.000000
  -0.007195  -0.006235  0.000000
  -0.006846  -0.006546  0.000000
  -0.007407  -0.006046  0.000000
  -0.008082  -0.005372  0.000000
  -0.008163  -0.005286  0.000000
  -0.008609  -0.004798  0.000000
  -0.007119  -0.006326  0.000000
  -0.008507  -0.004938  0.000000
  -0.006945  -0.006498  0.000000
  -0.008303  -0.005172  0.000000
  -0.006906  -0.006556  0.000000
  -0.007046  -0.006443  0.000000
  -0.008402  -0.005103  0.000000
  -0.008608  -0.004890  0.000000
  -0.007010  -0.006515  0.000000
  -0.007933  -0.005650  0.000000
  -0.008503  -0.005037  0.000000
  -0.007767  -0.005821  0.000000
  -0.007690  -0.005900  0.000000
  -0.006966  -0.006565  0.000000
  -0.008021  -0.005569  0.000000
  -0.007854  -0.005741  0.000000
  -0.007608  -0.005988  0.000000
  -0.007522  -0.006071  0.000000
  -0.008192  -0.005401  0.000000
  -0.008110  -0.005489  0.000000
  -0.007340  -0.006252  0.000000
  -0.007237  -0.006347  0.000000
  -0.007443  -0.006160  0.000000
  -0.007058  -0.006528  0.000000
  -0.008317  -0.005308  0.000000
  -0.008608  -0.004987  0.000000
  -0.007026  -0.006574  0.000000
  -0.008414  -0.005219  0.000000
  -0.007181  -0.006456  0.000000
  -0.008502  -0.005141  0.000000
  -0.007124  -0.006524  0.000000
  -0.007086  -0.006582  0.000000
  -0.007537  -0.006176  0.000000
  -0.008052  -0.005674  0.000000
  -0.007885  -0.005845  0.000000
  -0.007971  -0.005764  0.000000
  -0.008138  -0.005594  0.000000
  -0.007804  -0.005933  0.000000
  -0.007727  -0.006014  0.000000
  -0.008608  -0.005088  0.000000
  -0.007481  -0.006266  0.000000
  -0.007181  -0.006541  0.000000
  -0.007642  -0.006129  0.000000
  -0.008249  -0.005520  0.000000
  -0.007147  -0.006591  0.000000
  -0.007414  -0.006363  0.000000
  -0.008354  -0.005428  0.000000
  -0.008527  -0.005244  0.000000
  -0.007313  -0.006469  0.000000
  -0.007244  -0.006540  0.000000
  -0.008607  -0.005194  0.000000
  -0.008476  -0.005341  0.000000
  -0.007207  -0.006599  0.000000
  -0.008083  -0.005791  0.000000
  -0.007923  -0.005956  0.000000
  -0.008001  -0.005879  0.000000
  -0.007304  -0.006547  0.000000
  -0.007842  -0.006046  0.000000
  -0.007601  -0.006276  0.000000
  -0.007757  -0.006131  0.000000
  -0.007267  -0.006606  0.000000
  -0.007533  -0.006375  0.000000
  -0.008382  -0.005538  0.000000
  -0.008194  -0.005745  0.000000
  -0.008607  -0.005304  0.000000
  -0.007364  -0.006554  0.000000
  -0.007445  -0.006482  0.000000
  -0.007328  -0.006613  0.000000
  -0.008318  -0.005669  0.000000
  -0.007741  -0.006247  0.000000
  -0.008504  -0.005478  0.000000
  -0.008109  -0.005895  0.000000
  -0.007947  -0.006074  0.000000
  -0.008042  -0.005980  0.000000
  -0.007426  -0.006570  0.000000
  -0.007868  -0.006161  0.000000
  -0.007388  -0.006620  0.000000
  -0.007652  -0.006386  0.000000
  -0.008607  -0.005420  0.000000
  -0.007485  -0.006567  0.000000
  -0.007567  -0.006494  0.000000
  -0.008225  -0.005858  0.000000
  -0.008304  -0.005788  0.000000
  -0.007449  -0.006627  0.000000
  -0.008480  -0.005620  0.000000
  -0.007548  -0.006582  0.000000
  -0.008193  -0.005968  0.000000
  -0.008066  -0.006098  0.000000
  -0.008415  -0.005741  0.000000
  -0.007880  -0.006283  0.000000
  -0.007509  -0.006633  0.000000
  -0.008608  -0.005540  0.000000
  -0.007985  -0.006188  0.000000
  -0.007784  -0.006393  0.000000
  -0.007606  -0.006579  0.000000
  -0.008300  -0.005911  0.000000
  -0.007570  -0.006639  0.000000
  -0.007703  -0.006518  0.000000
  -0.008527  -0.005716  0.000000
  -0.008403  -0.005857  0.000000
  -0.007672  -0.006592  0.000000
  -0.008608  -0.005655  0.000000
  -0.007631  -0.006645  0.000000
  -0.007890  -0.006404  0.000000
  -0.008200  -0.006101  0.000000
  -0.008104  -0.006213  0.000000
  -0.008021  -0.006303  0.000000
  -0.008298  -0.006030  0.000000
  -0.008503  -0.005819  0.000000
  -0.007721  -0.006602  0.000000
  -0.007692  -0.006650  0.000000
  -0.007840  -0.006516  0.000000
  -0.008401  -0.005976  0.000000
  -0.008608  -0.005766  0.000000
  -0.007788  -0.006594  0.000000
  -0.007753  -0.006655  0.000000
  -0.008504  -0.005923  0.000000
  -0.008214  -0.006221  0.000000
  -0.008131  -0.006313  0.000000
  -0.008311  -0.006149  0.000000
  -0.007845  -0.006607  0.000000
  -0.008405  -0.006074  0.000000
  -0.008068  -0.006415  0.000000
  -0.007814  -0.006660  0.000000
  -0.008609  -0.005872  0.000000
  -0.007975  -0.006528  0.000000
  -0.007909  -0.006603  0.000000
  -0.008508  -0.006022  0.000000
  -0.007875  -0.006664  0.000000
  -0.008253  -0.006317  0.000000
  -0.007970  -0.006606  0.000000
  -0.008609  -0.005973  0.000000
  -0.008190  -0.006420  0.000000
  -0.007936  -0.006668  0.000000
  -0.008513  -0.006116  0.000000
  -0.008031  -0.006610  0.000000
  -0.008120  -0.006544  0.000000
  -0.008416  -0.006254  0.000000
  -0.007997  -0.006672  0.000000
  -0.008610  -0.006070  0.000000
  -0.008095  -0.006626  0.000000
  -0.008314  -0.006412  0.000000
  -0.008058  -0.006675  0.000000
  -0.008535  -0.006215  0.000000
  -0.008146  -0.006622  0.000000
  -0.008247  -0.006528  0.000000
  -0.008610  -0.006162  0.000000
  -0.008119  -0.006678  0.000000
  -0.008524  -0.006292  0.000000
  -0.008214  -0.006618  0.000000
  -0.008425  -0.006417  0.000000
  -0.008611  -0.006250  0.000000
  -0.008181  -0.006681  0.000000
  -0.008354  -0.006538  0.000000
  -0.008275  -0.006620  0.000000
  -0.008541  -0.006381  0.000000
  -0.008242  -0.006683  0.000000
  -0.008611  -0.006333  0.000000
  -0.008339  -0.006631  0.000000
  -0.008533  -0.006450  0.000000
  -0.008304  -0.006685  0.000000
  -0.008397  -0.006624  0.000000
  -0.008612  -0.006413  0.000000
  -0.008490  -0.006542  0.000000
  -0.008365  -0.006687  0.000000
  -0.008612  -0.006488  0.000000
  -0.008468  -0.006633  0.000000
  -0.008427  -0.006688  0.000000
  -0.008537  -0.006623  0.000000
  -0.008613  -0.006559  0.000000
  -0.008489  -0.006689  0.000000
  -0.008613  -0.006626  0.000000
  -0.008551  -0.006690  0.000000
  -0.008613  -0.006690  0.000000

CELL_DATA 7508
TENSORS stress double
  -27.888229  0.504258  0.000000
  0.504258  0.000000  0.000000
  0.000000  0.000000  0.000000


  -23.350145  10.105779  0.000000
  10.105779  -4.195704  0.000000
  0.000000  0.000000  0.000000


  -9.953822  10.463263  0.000000
  10.463263  -10.864601  0.000000
  0.000000  0.000000  0.000000


  -1.338154  3.619688  0.000000
  3.619688  -9.267026  0.000000
  0.000000  0.000000  0.000000


  -28.237104  5.874411  0.000000
  5.874411  -1.024198  0.000000
  0.000000  0.000000  0.000000


  -16.707606  11.575917  0.000000
  11.575917  -8.075873  0.000000
  0.000000  0.000000  0.000000


  -4.510763  7.299771  0.000000
  7.299771  -11.415772  0.000000
  0.000000  0.000000  0.000000


  -0.160525  0.845799  0.000000
  0.845799  -4.630395  0.000000
  0.000000  0.000000  0.000000


  -29.670471  3.226153  0.000000
  3.226153  -0.163899  0.000000
  0.000000  0.000000  0.000000


  -20.242427  11.235189  0.000000
  11.235189  -6.151196  0.000000
  0.000000  0.000000  0.000000


  -6.999687  9.034415  0.000000
  9.034415  -11.431594  0.000000
  0.000000  0.000000  0.000000


  -0.541609  2.039807  0.000000
  2.039807  -7.169987  0.000000
  0.000000  0.000000  0.000000


  -25.926887  8.111221  0.000000
  8.111221  -2.477621  0.000000
  0.000000  0.000000  0.000000


  -13.391072  11.331760  0.000000
  11.331760  -9.575266  0.000000
  0.000000  0.000000  0.000000


  -2.715872  5.456141  0.000000
  5.456141  -10.634922  0.000000
  0.000000  0.000000  0.000000


  0.003825  0.209161  0.000000
  0.209161  -2.000234  0.000000
  0.000000  0.000000  0.000000


  -30.148727  1.568832  0.000000
  1.568832  0.081569  0.000000
  0.000000  0.000000  0.000000


  -21.922741  10.635732  0.000000
  10.635732  -5.137849  0.000000
  0.000000  0.000000  0.000000


  -8.394229  9.801031  0.000000
  9.801031  -11.097459  0.000000
  0.000000  0.000000  0.000000


  -0.923794  2.760492  0.000000
  2.760492  -8.248702  0.000000
  0.000000  0.000000  0.000000


  -27.272284  7.070224  0.000000
  7.070224  -1.758651  0.000000
  0.000000  0.000000  0.000000


  -15.054079  11.570461  0.000000
  11.570461  -8.825001  0.000000
  0.000000  0.000000  0.000000


  -3.602984  6.413326  0.000000
  6.413326  -11.073895  0.000000
  0.000000  0.000000  0.000000


  -0.050529  0.458253  0.000000
  0.458253  -3.233294  0.000000
  0.000000  0.000000  0.000000


  -29.154382  4.502953  0.000000
  4.502953  -0.651465  0.000000
  0.000000  0.000000  0.000000


  -18.389741  11.474422  0.000000
  11.474422  -7.153426  0.000000
  0.000000  0.000000  0.000000


  -5.792154  8.180962  0.000000
  8.180962  -11.446972  0.000000
  0.000000  0.000000  0.000000


  -0.298841  1.402599  0.000000
  1.402599  -5.942634  0.000000
  0.000000  0.000000  0.000000


  -24.792834  9.227694  0.000000
  9.227694  -3.264018  0.000000
  0.000000  0.000000  0.000000


  -11.603057  10.893961  0.000000
  10.893961  -10.247961  0.000000
  0.000000  0.000000  0.000000


  -1.957254  4.518636  0.000000
  4.518636  -9.983175  0.000000
  0.000000  0.000000  0.000000


  0.249665  0.174824  0.000000
  0.174824  -1.022173  0.000000
  0.000000  0.000000  0.000000


  -29.895297  0.867995  0.000000
  0.867995  0.035506  0.000000
  0.000000  0.000000  0.000000


  -22.557367  10.487055  0.000000
  10.487055  -4.724625  0.000000
  0.000000  0.000000  0.000000


  -9.251026  10.071401  0.000000
  10.071401  -11.031241  0.000000
  0.000000  0.000000  0.000000


  -1.137683  3.124142  0.000000
  3.124142  -8.758383  0.000000
  0.000000  0.000000  0.000000


  -27.718829  6.416359  0.000000
  6.416359  -1.450230  0.000000
  0.000000  0.000000  0.000000


  -15.742730  11.458577  0.000000
  11.458577  -8.283012  0.000000
  0.000000  0.000000  0.000000


  -4.096703  6.794077  0.000000
  6.794077  -11.242146  0.000000
  0.000000  0.000000  0.000000


  -0.075254  0.647666  0.000000
  0.647666  -3.946369  0.000000
  0.000000  0.000000  0.000000


  -29.453753  3.941487  0.000000
  3.941487  -0.356118  0.000000
  0.000000  0.000000  0.000000


  -19.309488  11.392121  0.000000
  11.392121  -6.546202  0.000000
  0.000000  0.000000  0.000000


  -6.334435  8.666288  0.000000
  8.666288  -11.483039  0.000000
  0.000000  0.000000  0.000000


  -0.411943  1.705571  0.000000
  1.705571  -6.571464  0.000000
  0.000000  0.000000  0.000000


  -25.502038  8.655122  0.000000
  8.655122  -2.871267  0.000000
  0.000000  0.000000  0.000000


  -12.310953  11.076971  0.000000
  11.076971  -9.739510  0.000000
  0.000000  0.000000  0.000000


  -2.350598  4.969467  0.000000
  4.969467  -10.389826  0.000000
  0.000000  0.000000  0.000000


  0.042076  0.108534  0.000000
  0.108534  -1.557173  0.000000
  0.000000  0.000000  0.000000


  -30.066623  2.383432  0.000000
  2.383432  0.045108  0.000000
  0.000000  0.000000  0.000000


  -20.831870  10.938126  0.000000
  10.938126  -5.509360  0.000000
  0.000000  0.000000  0.000000


  -7.700081  9.420016  0.000000
  9.420016  -11.295263  0.000000
  0.000000  0.000000  0.000000


  -0.717494  2.410808  0.000000
  2.410808  -7.723907  0.000000
  0.000000  0.000000  0.000000


  -26.862055  7.650206  0.000000
  7.650206  -2.064971  0.000000
  0.000000  0.000000  0.000000


  -13.950240  11.307774  0.000000
  11.307774  -9.073242  0.000000
  0.000000  0.000000  0.000000


  -3.129482  5.906070  0.000000
  5.906070  -10.907419  0.000000
  0.000000  0.000000  0.000000


  -0.029202  0.318041  0.000000
  0.318041  -2.597079  0.000000
  0.000000  0.000000  0.000000


  -28.854518  5.166752  0.000000
  5.166752  -0.786048  0.000000
  0.000000  0.000000  0.000000


  -17.639486  11.631764  0.000000
  11.631764  -7.557899  0.000000
  0.000000  0.000000  0.000000


  -5.119933  7.733463  0.000000
  7.733463  -11.431664  0.000000
  0.000000  0.000000  0.000000


  -0.195752  1.105067  0.000000
  1.105067  -5.296143  0.000000
  0.000000  0.000000  0.000000


  -24.206223  9.618007  0.000000
  9.618007  -3.710119  0.000000
  0.000000  0.000000  0.000000


  -10.747589  10.719649  0.000000
  10.719649  -10.474375  0.000000
  0.000000  0.000000  0.000000


  -1.693531  4.038250  0.000000
  4.038250  -9.649606  0.000000
  0.000000  0.000000  0.000000


  -29.374668  0.531690  0.000000
  0.531690  0.093984  0.000000
  0.000000  0.000000  0.000000


  -22.998242  10.189195  0.000000
  10.189195  -4.480157  0.000000
  0.000000  0.000000  0.000000


  -9.737377  10.322919  0.000000
  10.322919  -10.913948  0.000000
  0.000000  0.000000  0.000000


  -1.243150  3.396024  0.000000
  3.396024  -9.005291  0.000000
  0.000000  0.000000  0.000000


  -28.086712  6.187619  0.000000
  6.187619  -1.071837  0.000000
  0.000000  0.000000  0.000000


  -16.295382  11.623961  0.000000
  11.623961  -8.227269  0.000000
  0.000000  0.000000  0.000000


  -4.324819  7.053962  0.000000
  7.053962  -11.274318  0.000000
  0.000000  0.000000  0.000000


  -0.104430  0.738602  0.000000
  0.738602  -4.282124  0.000000
  0.000000  0.000000  0.000000


  -29.666677  3.459899  0.000000
  3.459899  -0.227102  0.000000
  0.000000  0.000000  0.000000


  -19.809914  11.189148  0.000000
  11.189148  -6.177857  0.000000
  0.000000  0.000000  0.000000


  -6.743369  8.802781  0.000000
  8.802781  -11.471781  0.000000
  0.000000  0.000000  0.000000


  -0.475112  1.867953  0.000000
  1.867953  -6.871266  0.000000
  0.000000  0.000000  0.000000


  -25.812734  8.526704  0.000000
  8.526704  -2.538280  0.000000
  0.000000  0.000000  0.000000


  -12.854116  11.248544  0.000000
  11.248544  -9.872497  0.000000
  0.000000  0.000000  0.000000


  -2.508065  5.208716  0.000000
  5.208716  -10.546601  0.000000
  0.000000  0.000000  0.000000


  0.006168  0.146668  0.000000
  0.146668  -1.731444  0.000000
  0.000000  0.000000  0.000000


  -30.101162  2.012100  0.000000
  2.012100  0.095612  0.000000
  0.000000  0.000000  0.000000


  -21.377246  10.742282  0.000000
  10.742282  -5.368162  0.000000
  0.000000  0.000000  0.000000


  -8.039062  9.636130  0.000000
  9.636130  -11.196109  0.000000
  0.000000  0.000000  0.000000


  -0.763755  2.580230  0.000000
  2.580230  -8.048305  0.000000
  0.000000  0.000000  0.000000


  -27.117239  7.441226  0.000000
  7.441226  -1.781457  0.000000
  0.000000  0.000000  0.000000


  -14.522534  11.524635  0.000000
  11.524635  -9.143544  0.000000
  0.000000  0.000000  0.000000


  -3.323692  6.101938  0.000000
  6.101938  -10.952425  0.000000
  0.000000  0.000000  0.000000


  -0.040944  0.379427  0.000000
  0.379427  -2.914475  0.000000
  0.000000  0.000000  0.000000


  -29.038949  4.844930  0.000000
  4.844930  -0.831190  0.000000
  0.000000  0.000000  0.000000


  -17.979997  11.466340  0.000000
  11.466340  -7.363093  0.000000
  0.000000  0.000000  0.000000


  -5.502461  7.966542  0.000000
  7.966542  -11.498084  0.000000
  0.000000  0.000000  0.000000


  -0.242657  1.252891  0.000000
  1.252891  -5.638075  0.000000
  0.000000  0.000000  0.000000


  -24.476344  9.441486  0.000000
  9.441486  -3.453724  0.000000
  0.000000  0.000000  0.000000


  -11.235418  10.807622  0.000000
  10.807622  -10.324370  0.000000
  0.000000  0.000000  0.000000


  -1.816201  4.238597  0.000000
  4.238597  -9.799793  0.000000
  0.000000  0.000000  0.000000


  -30.043599  1.214038  0.000000
  1.214038  -0.055452  0.000000
  0.000000  0.000000  0.000000


  -22.342987  10.558845  0.000000
  10.558845  -4.981708  0.000000
  0.000000  0.000000  0.000000


  -8.821493  9.889314  0.000000
  9.889314  -11.074078  0.000000
  0.000000  0.000000  0.000000


  -1.015600  2.919991  0.000000
  2.919991  -8.535384  0.000000
  0.000000  0.000000  0.000000


  -27.528936  6.828324  0.000000
  6.828324  -1.602114  0.000000
  0.000000  0.000000  0.000000


  -15.468136  11.554202  0.000000
  11.554202  -8.540195  0.000000
  0.000000  0.000000  0.000000


  -3.886491  6.600506  0.000000
  6.600506  -11.200233  0.000000
  0.000000  0.000000  0.000000


  -0.055454  0.551650  0.000000
  0.551650  -3.587766  0.000000
  0.000000  0.000000  0.000000


  -29.302621  4.120637  0.000000
  4.120637  -0.433536  0.000000
  0.000000  0.000000  0.000000


  -18.853568  11.357181  0.000000
  11.357181  -6.889265  0.000000
  0.000000  0.000000  0.000000


  -6.085095  8.356711  0.000000
  8.356711  -11.501644  0.000000
  0.000000  0.000000  0.000000


  -0.354341  1.548786  0.000000
  1.548786  -6.264134  0.000000
  0.000000  0.000000  0.000000


  -25.088917  9.015280  0.000000
  9.015280  -3.162477  0.000000
  0.000000  0.000000  0.000000


  -12.164693  11.035569  0.000000
  11.035569  -10.023016  0.000000
  0.000000  0.000000  0.000000


  -2.182165  4.734496  0.000000
  4.734496  -10.214959  0.000000
  0.000000  0.000000  0.000000


  0.051118  0.103765  0.000000
  0.103765  -1.378919  0.000000
  0.000000  0.000000  0.000000


  -29.905445  2.724538  0.000000
  2.724538  -0.048635  0.000000
  0.000000  0.000000  0.000000


  -20.529759  11.181446  0.000000
  11.181446  -5.802302  0.000000
  0.000000  0.000000  0.000000


  -7.448430  9.225883  0.000000
  9.225883  -11.230738  0.000000
  0.000000  0.000000  0.000000


  -0.622090  2.215332  0.000000
  2.215332  -7.453498  0.000000
  0.000000  0.000000  0.000000


  -26.453758  8.016275  0.000000
  8.016275  -2.368662  0.000000
  0.000000  0.000000  0.000000


  -13.765796  11.460397  0.000000
  11.460397  -9.401535  0.000000
  0.000000  0.000000  0.000000


  -2.951085  5.704477  0.000000
  5.704477  -10.858906  0.000000
  0.000000  0.000000  0.000000


  -0.024399  0.255642  0.000000
  0.255642  -2.280611  0.000000
  0.000000  0.000000  0.000000


  -28.525739  5.508850  0.000000
  5.508850  -0.902391  0.000000
  0.000000  0.000000  0.000000


  -17.103744  11.565357  0.000000
  11.565357  -7.844781  0.000000
  0.000000  0.000000  0.000000


  -4.871195  7.500104  0.000000
  7.500104  -11.391122  0.000000
  0.000000  0.000000  0.000000


  -0.159993  0.967675  0.000000
  0.967675  -4.977594  0.000000
  0.000000  0.000000  0.000000


  -23.680207  9.731787  0.000000
  9.731787  -3.992087  0.000000
  0.000000  0.000000  0.000000


  -10.357953  10.610426  0.000000
  10.610426  -10.612068  0.000000
  0.000000  0.000000  0.000000


  -1.501437  3.847638  0.000000
  3.847638  -9.467181  0.000000
  0.000000  0.000000  0.000000


  -28.762090  0.446655  0.000000
  0.446655  0.174816  0.000000
  0.000000  0.000000  0.000000


  -23.254819  10.119174  0.000000
  10.119174  -4.227227  0.000000
  0.000000  0.000000  0.000000


  -9.699861  10.301949  0.000000
  10.301949  -10.696233  0.000000
  0.000000  0.000000  0.000000


  -1.334665  3.497225  0.000000
  3.497225  -9.124557  0.000000
  0.000000  0.000000  0.000000


  -28.160581  6.107976  0.000000
  6.107976  -1.316352  0.000000
  0.000000  0.000000  0.000000


  -16.482435  11.667687  0.000000
  11.667687  -7.975081  0.000000
  0.000000  0.000000  0.000000


  -4.500216  7.202072  0.000000
  7.202072  -11.440026  0.000000
  0.000000  0.000000  0.000000


  -0.124424  0.794421  0.000000
  0.794421  -4.454595  0.000000
  0.000000  0.000000  0.000000


  -29.825972  3.342998  0.000000
  3.342998  -0.356936  0.000000
  0.000000  0.000000  0.000000


  -19.989079  11.190773  0.000000
  11.190773  -6.198512  0.000000
  0.000000  0.000000  0.000000


  -6.903419  8.971166  0.000000
  8.971166  -11.372067  0.000000
  0.000000  0.000000  0.000000


  -0.541096  1.951640  0.000000
  1.951640  -7.059333  0.000000
  0.000000  0.000000  0.000000


  -25.895327  8.390410  0.000000
  8.390410  -2.744799  0.000000
  0.000000  0.000000  0.000000


  -13.121363  11.342735  0.000000
  11.342735  -9.587168  0.000000
  0.000000  0.000000  0.000000


  -2.624651  5.269458  0.000000
  5.269458  -10.597656  0.000000
  0.000000  0.000000  0.000000


  -0.017242  0.169500  0.000000
  0.169500  -1.868483  0.000000
  0.000000  0.000000  0.000000


  -30.115369  1.894176  0.000000
  1.894176  -0.150149  0.000000
  0.000000  0.000000  0.000000


  -21.497754  10.667521  0.000000
  10.667521  -5.168437  0.000000
  0.000000  0.000000  0.000000


  -8.368193  9.643177  0.000000
  9.643177  -11.166952  0.000000
  0.000000  0.000000  0.000000


  -0.869467  2.677033  0.000000
  2.677033  -8.157056  0.000000
  0.000000  0.000000  0.000000


  -27.193070  7.366483  0.000000
  7.366483  -1.971495  0.000000
  0.000000  0.000000  0.000000


  -14.756973  11.539564  0.000000
  11.539564  -8.839127  0.000000
  0.000000  0.000000  0.000000


  -3.501927  6.229056  0.000000
  6.229056  -11.098216  0.000000
  0.000000  0.000000  0.000000


  -0.043114  0.412814  0.000000
  0.412814  -3.059729  0.000000
  0.000000  0.000000  0.000000


  -29.041998  4.734100  0.000000
  4.734100  -0.559962  0.000000
  0.000000  0.000000  0.000000


  -18.224482  11.534382  0.000000
  11.534382  -7.004804  0.000000
  0.000000  0.000000  0.000000


  -5.615388  8.160857  0.000000
  8.160857  -11.460472  0.000000
  0.000000  0.000000  0.000000


  -0.307065  1.319868  0.000000
  1.319868  -5.800246  0.000000
  0.000000  0.000000  0.000000


  -24.738931  9.306068  0.000000
  9.306068  -3.476209  0.000000
  0.000000  0.000000  0.000000


  -11.293701  10.857036  0.000000
  10.857036  -10.246492  0.000000
  0.000000  0.000000  0.000000


  -1.904982  4.346041  0.000000
  4.346041  -9.918039  0.000000
  0.000000  0.000000  0.000000


  0.523316  0.491314  0.000000
  0.491314  -0.474691  0.000000
  0.000000  0.000000  0.000000


  -29.886798  1.094114  0.000000
  1.094114  0.142716  0.000000
  0.000000  0.000000  0.000000


  -22.355688  10.505201  0.000000
  10.505201  -4.798928  0.000000
  0.000000  0.000000  0.000000


  -8.978374  10.035514  0.000000
  10.035514  -10.932722  0.000000
  0.000000  0.000000  0.000000


  -1.008131  3.071829  0.000000
  3.071829  -8.614872  0.000000
  0.000000  0.000000  0.000000


  -27.403150  6.607349  0.000000
  6.607349  -1.563080  0.000000
  0.000000  0.000000  0.000000


  -15.615875  11.624312  0.000000
  11.624312  -8.529944  0.000000
  0.000000  0.000000  0.000000


  -3.867423  6.715500  0.000000
  6.715500  -11.223007  0.000000
  0.000000  0.000000  0.000000


  -0.091624  0.590046  0.000000
  0.590046  -3.777181  0.000000
  0.000000  0.000000  0.000000


  -29.622146  4.070783  0.000000
  4.070783  -0.476831  0.000000
  0.000000  0.000000  0.000000


  -19.169238  11.375706  0.000000
  11.375706  -6.559034  0.000000
  0.000000  0.000000  0.000000


  -6.277706  8.531270  0.000000
  8.531270  -11.394350  0.000000
  0.000000  0.000000  0.000000


  -0.405243  1.621269  0.000000
  1.621269  -6.453836  0.000000
  0.000000  0.000000  0.000000


  -25.194889  8.818649  0.000000
  8.818649  -2.977174  0.000000
  0.000000  0.000000  0.000000


  -12.372339  11.142582  0.000000
  11.142582  -9.922192  0.000000
  0.000000  0.000000  0.000000


  -2.196886  4.844835  0.000000
  4.844835  -10.271535  0.000000
  0.000000  0.000000  0.000000


  0.027417  0.080355  0.000000
  0.080355  -1.496916  0.000000
  0.000000  0.000000  0.000000


  -30.006483  2.608833  0.000000
  2.608833  -0.236707  0.000000
  0.000000  0.000000  0.000000


  -20.776340  10.905443  0.000000
  10.905443  -5.789587  0.000000
  0.000000  0.000000  0.000000


  -7.648773  9.385329  0.000000
  9.385329  -11.369933  0.000000
  0.000000  0.000000  0.000000


  -0.693925  2.304344  0.000000
  2.304344  -7.637071  0.000000
  0.000000  0.000000  0.000000


  -26.594273  7.789186  0.000000
  7.789186  -2.164029  0.000000
  0.000000  0.000000  0.000000


  -13.995187  11.555002  0.000000
  11.555002  -9.419730  0.000000
  0.000000  0.000000  0.000000


  -2.993108  5.780650  0.000000
  5.780650  -10.853259  0.000000
  0.000000  0.000000  0.000000


  -0.023617  0.290483  0.000000
  0.290483  -2.413201  0.000000
  0.000000  0.000000  0.000000


  -28.761680  5.402355  0.000000
  5.402355  -0.998758  0.000000
  0.000000  0.000000  0.000000


  -17.354033  11.556828  0.000000
  11.556828  -7.519083  0.000000
  0.000000  0.000000  0.000000


  -5.050291  7.681977  0.000000
  7.681977  -11.486707  0.000000
  0.000000  0.000000  0.000000


  -0.215107  1.043129  0.000000
  1.043129  -5.131622  0.000000
  0.000000  0.000000  0.000000


  -23.804568  9.646363  0.000000
  9.646363  -3.796482  0.000000
  0.000000  0.000000  0.000000


  -10.591549  10.560094  0.000000
  10.560094  -10.588053  0.000000
  0.000000  0.000000  0.000000


  -1.542794  3.925186  0.000000
  3.925186  -9.587473  0.000000
  0.000000  0.000000  0.000000


  -29.614379  0.801931  0.000000
  0.801931  0.208039  0.000000
  0.000000  0.000000  0.000000


  -22.814209  10.249762  0.000000
  10.249762  -4.609635  0.000000
  0.000000  0.000000  0.000000


  -9.484063  10.282704  0.000000
  10.282704  -10.858643  0.000000
  0.000000  0.000000  0.000000


  -1.189075  3.301547  0.000000
  3.301547  -8.840506  0.000000
  0.000000  0.000000  0.000000


  -27.907734  6.291156  0.000000
  6.291156  -1.402715  0.000000
  0.000000  0.000000  0.000000


  -16.041669  11.553861  0.000000
  11.553861  -8.235152  0.000000
  0.000000  0.000000  0.000000


  -4.193717  6.909166  0.000000
  6.909166  -11.292312  0.000000
  0.000000  0.000000  0.000000


  -0.107021  0.684616  0.000000
  0.684616  -4.133115  0.000000
  0.000000  0.000000  0.000000


  -29.626810  3.742332  0.000000
  3.742332  -0.465175  0.000000
  0.000000  0.000000  0.000000


  -19.652382  11.263130  0.000000
  11.263130  -6.427451  0.000000
  0.000000  0.000000  0.000000


  -6.580444  8.719615  0.000000
  8.719615  -11.476431  0.000000
  0.000000  0.000000  0.000000


  -0.468984  1.782613  0.000000
  1.782613  -6.761985  0.000000
  0.000000  0.000000  0.000000


  -25.670933  8.606204  0.000000
  8.606204  -2.813859  0.000000
  0.000000  0.000000  0.000000


  -12.597527  11.250888  0.000000
  11.250888  -9.905479  0.000000
  0.000000  0.000000  0.000000


  -2.376356  5.063163  0.000000
  5.063163  -10.425976  0.000000
  0.000000  0.000000  0.000000


  -0.002603  0.105180  0.000000
  0.105180  -1.645774  0.000000
  0.000000  0.000000  0.000000


  -30.093351  2.272207  0.000000
  2.272207  -0.194694  0.000000
  0.000000  0.000000  0.000000


  -21.108660  10.768017  0.000000
  10.768017  -5.495438  0.000000
  0.000000  0.000000  0.000000


  -8.023529  9.488823  0.000000
  9.488823  -11.233767  0.000000
  0.000000  0.000000  0.000000


  -0.777891  2.516329  0.000000
  2.516329  -7.915975  0.000000
  0.000000  0.000000  0.000000


  -26.973435  7.571313  0.000000
  7.571313  -2.104300  0.000000
  0.000000  0.000000  0.000000


  -14.317801  11.561632  0.000000
  11.561632  -9.156491  0.000000
  0.000000  0.000000  0.000000


  -3.215982  5.969078  0.000000
  5.969078  -10.997657  0.000000
  0.000000  0.000000  0.000000


  -0.024348  0.345178  0.000000
  0.345178  -2.745609  0.000000
  0.000000  0.000000  0.000000


  -28.932106  5.110761  0.000000
  5.110761  -0.737897  0.000000
  0.000000  0.000000  0.000000


  -17.623208  11.553097  0.000000
  11.553097  -7.419614  0.000000
  0.000000  0.000000  0.000000


  -5.345344  7.853032  0.000000
  7.853032  -11.441420  0.000000
  0.000000  0.000000  0.000000


  -0.258332  1.183317  0.000000
  1.183317  -5.464475  0.000000
  0.000000  0.000000  0.000000


  -24.336710  9.575667  0.000000
  9.575667  -3.700291  0.000000
  0.000000  0.000000  0.000000


  -11.081862  10.763040  0.000000
  10.763040  -10.399655  0.000000
  0.000000  0.000000  0.000000


  -1.679876  4.141401  0.000000
  4.141401  -9.726285  0.000000
  0.000000  0.000000  0.000000


  -30.128157  1.523161  0.000000
  1.523161  0.122592  0.000000
  0.000000  0.000000  0.000000


  -22.020899  10.615548  0.000000
  10.615548  -4.946408  0.000000
  0.000000  0.000000  0.000000


  -8.649740  9.818047  0.000000
  9.818047  -11.078598  0.000000
  0.000000  0.000000  0.000000


  -0.897758  2.872840  0.000000
  2.872840  -8.402904  0.000000
  0.000000  0.000000  0.000000


  -27.596484  6.898155  0.000000
  6.898155  -1.594095  0.000000
  0.000000  0.000000  0.000000


  -15.157596  11.564434  0.000000
  11.564434  -8.654033  0.000000
  0.000000  0.000000  0.000000


  -3.660988  6.504909  0.000000
  6.504909  -11.194334  0.000000
  0.000000  0.000000  0.000000


  -0.073736  0.494285  0.000000
  0.494285  -3.414248  0.000000
  0.000000  0.000000  0.000000


  -29.216081  4.362895  0.000000
  4.362895  -0.616046  0.000000
  0.000000  0.000000  0.000000


  -18.582926  11.416453  0.000000
  11.416453  -6.865117  0.000000
  0.000000  0.000000  0.000000


  -5.929196  8.288292  0.000000
  8.288292  -11.473036  0.000000
  0.000000  0.000000  0.000000


  -0.347241  1.467934  0.000000
  1.467934  -6.140967  0.000000
  0.000000  0.000000  0.000000


  -25.047819  9.067921  0.000000
  9.067921  -3.205333  0.000000
  0.000000  0.000000  0.000000


  -11.768074  11.018942  0.000000
  11.018942  -10.120729  0.000000
  0.000000  0.000000  0.000000


  -2.033259  4.593971  0.000000
  4.593971  -10.110684  0.000000
  0.000000  0.000000  0.000000


  0.114880  0.112805  0.000000
  0.112805  -1.253999  0.000000
  0.000000  0.000000  0.000000


  -29.861053  3.014002  0.000000
  3.014002  -0.340113  0.000000
  0.000000  0.000000  0.000000


  -20.437415  11.084102  0.000000
  11.084102  -5.879668  0.000000
  0.000000  0.000000  0.000000


  -7.312336  9.090766  0.000000
  9.090766  -11.355168  0.000000
  0.000000  0.000000  0.000000


  -0.616383  2.125131  0.000000
  2.125131  -7.354025  0.000000
  0.000000  0.000000  0.000000


  -26.234467  8.062698  0.000000
  8.062698  -2.398494  0.000000
  0.000000  0.000000  0.000000


  -13.366967  11.182148  0.000000
  11.182148  -9.258826  0.000000
  0.000000  0.000000  0.000000


  -2.824024  5.559902  0.000000
  5.559902  -10.691823  0.000000
  0.000000  0.000000  0.000000


  -0.007511  0.220590  0.000000
  0.220590  -2.138327  0.000000
  0.000000  0.000000  0.000000


  -28.370977  5.724754  0.000000
  5.724754  -1.196582  0.000000
  0.000000  0.000000  0.000000


  -16.913638  11.646743  0.000000
  11.646743  -7.732340  0.000000
  0.000000  0.000000  0.000000


  -4.701216  7.380752  0.000000
  7.380752  -11.513347  0.000000
  0.000000  0.000000  0.000000


  -0.145498  0.932159  0.000000
  0.932159  -4.802226  0.000000
  0.000000  0.000000  0.000000


  -23.589944  9.875376  0.000000
  9.875376  -4.122082  0.000000
  0.000000  0.000000  0.000000


  -10.175551  10.499202  0.000000
  10.499202  -10.839027  0.000000
  0.000000  0.000000  0.000000


  -1.464190  3.713745  0.000000
  3.713745  -9.408816  0.000000
  0.000000  0.000000  0.000000


  -0.546426  0.470883  0.000000
  0.470883  0.457965  0.000000
  0.000000  0.000000  0.000000


  5.122332  -7.028744  0.000000
  -7.028744  9.276392  0.000000
  0.000000  0.000000  0.000000


  21.308848  -6.252476  0.000000
  -6.252476  1.576878  0.000000
  0.000000  0.000000  0.000000


  0.671610  -2.279984  0.000000
  -2.279984  6.926703  0.000000
  0.000000  0.000000  0.000000


  13.441700  -9.331167  0.000000
  -9.331167  6.173370  0.000000
  0.000000  0.000000  0.000000


  0.064407  -0.580744  0.000000
  -0.580744  3.852869  0.000000
  0.000000  0.000000  0.000000


  8.961106  -8.795993  0.000000
  -8.795993  8.235702  0.000000
  0.000000  0.000000  0.000000


  23.302914  -2.820751  0.000000
  -2.820751  0.127266  0.000000
  0.000000  0.000000  0.000000


  2.296256  -4.662584  0.000000
  -4.662584  8.790640  0.000000
  0.000000  0.000000  0.000000


  17.716525  -8.505568  0.000000
  -8.505568  3.800836  0.000000
  0.000000  0.000000  0.000000


  -0.025483  -0.128432  0.000000
  -0.128432  2.181204  0.000000
  0.000000  0.000000  0.000000


  6.953603  -8.010478  0.000000
  -8.010478  8.917562  0.000000
  0.000000  0.000000  0.000000


  22.576065  -4.600991  0.000000
  -4.600991  0.731628  0.000000
  0.000000  0.000000  0.000000


  1.336563  -3.439246  0.000000
  -3.439246  8.032940  0.000000
  0.000000  0.000000  0.000000


  15.568270  -9.101683  0.000000
  -9.101683  5.026733  0.000000
  0.000000  0.000000  0.000000


  0.245551  -1.324489  0.000000
  -1.324489  5.507426  0.000000
  0.000000  0.000000  0.000000


  11.047455  -9.120905  0.000000
  -9.120905  7.296880  0.000000
  0.000000  0.000000  0.000000


  23.912079  -0.972812  0.000000
  -0.972812  -0.205438  0.000000
  0.000000  0.000000  0.000000


  3.537405  -5.866270  0.000000
  -5.866270  9.197065  0.000000
  0.000000  0.000000  0.000000


  19.762117  -7.522636  0.000000
  -7.522636  2.602552  0.000000
  0.000000  0.000000  0.000000


  -0.023570  -0.045677  0.000000
  -0.045677  1.586493  0.000000
  0.000000  0.000000  0.000000


  6.060350  -7.562950  0.000000
  -7.562950  9.142429  0.000000
  0.000000  0.000000  0.000000


  22.102778  -5.409342  0.000000
  -5.409342  1.119188  0.000000
  0.000000  0.000000  0.000000


  1.019821  -2.845730  0.000000
  -2.845730  7.492660  0.000000
  0.000000  0.000000  0.000000


  14.545950  -9.294059  0.000000
  -9.294059  5.709157  0.000000
  0.000000  0.000000  0.000000


  0.113056  -0.908875  0.000000
  -0.908875  4.698549  0.000000
  0.000000  0.000000  0.000000


  10.074741  -9.074254  0.000000
  -9.074254  7.814059  0.000000
  0.000000  0.000000  0.000000


  23.553412  -1.932594  0.000000
  -1.932594  -0.102795  0.000000
  0.000000  0.000000  0.000000


  2.947053  -5.285129  0.000000
  -5.285129  9.066101  0.000000
  0.000000  0.000000  0.000000


  18.807643  -8.058471  0.000000
  -8.058471  3.155788  0.000000
  0.000000  0.000000  0.000000


  0.001164  -0.314917  0.000000
  -0.314917  2.980920  0.000000
  0.000000  0.000000  0.000000


  7.933394  -8.439713  0.000000
  -8.439713  8.579588  0.000000
  0.000000  0.000000  0.000000


  23.096868  -3.780735  0.000000
  -3.780735  0.339704  0.000000
  0.000000  0.000000  0.000000


  1.808875  -4.033081  0.000000
  -4.033081  8.490994  0.000000
  0.000000  0.000000  0.000000


  16.693838  -8.840522  0.000000
  -8.840522  4.381369  0.000000
  0.000000  0.000000  0.000000


  0.443467  -1.783629  0.000000
  -1.783629  6.263406  0.000000
  0.000000  0.000000  0.000000


  4.327276  -6.471767  0.000000
  -6.471767  9.305477  0.000000
  0.000000  0.000000  0.000000


  12.298104  -9.357759  0.000000
  -9.357759  6.775895  0.000000
  0.000000  0.000000  0.000000


  20.526146  -6.845996  0.000000
  -6.845996  2.135823  0.000000
  0.000000  0.000000  0.000000


  -0.045527  -0.009681  0.000000
  -0.009681  1.399192  0.000000
  0.000000  0.000000  0.000000


  5.605291  -7.269066  0.000000
  -7.269066  9.153563  0.000000
  0.000000  0.000000  0.000000


  21.718721  -5.838470  0.000000
  -5.838470  1.369235  0.000000
  0.000000  0.000000  0.000000


  0.798154  -2.571959  0.000000
  -2.571959  7.242379  0.000000
  0.000000  0.000000  0.000000


  13.874950  -9.351661  0.000000
  -9.351661  5.970479  0.000000
  0.000000  0.000000  0.000000


  0.090083  -0.757874  0.000000
  -0.757874  4.287706  0.000000
  0.000000  0.000000  0.000000


  9.553521  -8.926023  0.000000
  -8.926023  8.052566  0.000000
  0.000000  0.000000  0.000000


  23.489132  -2.311033  0.000000
  -2.311033  -0.036339  0.000000
  0.000000  0.000000  0.000000


  2.635671  -4.976610  0.000000
  -4.976610  8.945154  0.000000
  0.000000  0.000000  0.000000


  18.267383  -8.217640  0.000000
  -8.217640  3.512929  0.000000
  0.000000  0.000000  0.000000


  -0.009967  -0.207715  0.000000
  -0.207715  2.566198  0.000000
  0.000000  0.000000  0.000000


  7.352423  -8.187002  0.000000
  -8.187002  8.832629  0.000000
  0.000000  0.000000  0.000000


  22.893595  -4.217510  0.000000
  -4.217510  0.552077  0.000000
  0.000000  0.000000  0.000000


  1.550977  -3.718483  0.000000
  -3.718483  8.339606  0.000000
  0.000000  0.000000  0.000000


  16.192625  -8.966807  0.000000
  -8.966807  4.743615  0.000000
  0.000000  0.000000  0.000000


  0.359451  -1.551358  0.000000
  -1.551358  5.880544  0.000000
  0.000000  0.000000  0.000000


  11.764784  -9.305819  0.000000
  -9.305819  7.113187  0.000000
  0.000000  0.000000  0.000000


  24.486880  -0.580655  0.000000
  -0.580655  -0.201135  0.000000
  0.000000  0.000000  0.000000


  3.910046  -6.187234  0.000000
  -6.187234  9.240457  0.000000
  0.000000  0.000000  0.000000


  20.034450  -7.207651  0.000000
  -7.207651  2.325795  0.000000
  0.000000  0.000000  0.000000


  -0.019316  -0.073494  0.000000
  -0.073494  1.847932  0.000000
  0.000000  0.000000  0.000000


  6.510471  -7.784010  0.000000
  -7.784010  9.002756  0.000000
  0.000000  0.000000  0.000000


  22.354481  -4.990448  0.000000
  -4.990448  0.904467  0.000000
  0.000000  0.000000  0.000000


  1.143765  -3.143471  0.000000
  -3.143471  7.792148  0.000000
  0.000000  0.000000  0.000000


  14.999415  -9.212122  0.000000
  -9.212122  5.326679  0.000000
  0.000000  0.000000  0.000000


  0.178206  -1.099357  0.000000
  -1.099357  5.101113  0.000000
  0.000000  0.000000  0.000000


  10.585925  -9.154675  0.000000
  -9.154675  7.605111  0.000000
  0.000000  0.000000  0.000000


  23.782103  -1.433033  0.000000
  -1.433033  -0.189556  0.000000
  0.000000  0.000000  0.000000


  3.238447  -5.577265  0.000000
  -5.577265  9.163837  0.000000
  0.000000  0.000000  0.000000


  19.214853  -7.783362  0.000000
  -7.783362  2.859182  0.000000
  0.000000  0.000000  0.000000


  0.016258  -0.438329  0.000000
  -0.438329  3.424563  0.000000
  0.000000  0.000000  0.000000


  8.493775  -8.623677  0.000000
  -8.623677  8.476585  0.000000
  0.000000  0.000000  0.000000


  23.299865  -3.297218  0.000000
  -3.297218  0.257945  0.000000
  0.000000  0.000000  0.000000


  2.024457  -4.325134  0.000000
  -4.325134  8.633905  0.000000
  0.000000  0.000000  0.000000


  17.202032  -8.677042  0.000000
  -8.677042  4.101667  0.000000
  0.000000  0.000000  0.000000


  0.546727  -2.031955  0.000000
  -2.031955  6.611277  0.000000
  0.000000  0.000000  0.000000


  4.677660  -6.751181  0.000000
  -6.751181  9.251671  0.000000
  0.000000  0.000000  0.000000


  12.858561  -9.397549  0.000000
  -9.397549  6.514555  0.000000
  0.000000  0.000000  0.000000


  20.995776  -6.511626  0.000000
  -6.511626  1.795686  0.000000
  0.000000  0.000000  0.000000


  -0.137111  0.018365  0.000000
  0.018365  1.262342  0.000000
  0.000000  0.000000  0.000000


  5.332261  -7.113375  0.000000
  -7.113375  9.169963  0.000000
  0.000000  0.000000  0.000000


  21.525644  -6.108008  0.000000
  -6.108008  1.431923  0.000000
  0.000000  0.000000  0.000000


  0.721596  -2.422710  0.000000
  -2.422710  7.083790  0.000000
  0.000000  0.000000  0.000000


  13.583746  -9.373118  0.000000
  -9.373118  6.134035  0.000000
  0.000000  0.000000  0.000000


  0.064685  -0.660233  0.000000
  -0.660233  4.069297  0.000000
  0.000000  0.000000  0.000000


  9.218028  -8.846526  0.000000
  -8.846526  8.122048  0.000000
  0.000000  0.000000  0.000000


  23.439210  -2.573033  0.000000
  -2.573033  0.029106  0.000000
  0.000000  0.000000  0.000000


  2.448121  -4.794217  0.000000
  -4.794217  8.845716  0.000000
  0.000000  0.000000  0.000000


  17.966834  -8.362713  0.000000
  -8.362713  3.631121  0.000000
  0.000000  0.000000  0.000000


  -0.021683  -0.167273  0.000000
  -0.167273  2.373800  0.000000
  0.000000  0.000000  0.000000


  7.205966  -8.122368  0.000000
  -8.122368  8.833048  0.000000
  0.000000  0.000000  0.000000


  22.804037  -4.443677  0.000000
  -4.443677  0.619539  0.000000
  0.000000  0.000000  0.000000


  1.444550  -3.577575  0.000000
  -3.577575  8.151426  0.000000
  0.000000  0.000000  0.000000


  15.840605  -9.011146  0.000000
  -9.011146  4.861117  0.000000
  0.000000  0.000000  0.000000


  0.294201  -1.434774  0.000000
  -1.434774  5.684407  0.000000
  0.000000  0.000000  0.000000


  11.439802  -9.240839  0.000000
  -9.240839  7.212264  0.000000
  0.000000  0.000000  0.000000


  24.127465  -0.743659  0.000000
  -0.743659  -0.217767  0.000000
  0.000000  0.000000  0.000000


  3.726410  -6.039767  0.000000
  -6.039767  9.226312  0.000000
  0.000000  0.000000  0.000000


  19.955033  -7.414162  0.000000
  -7.414162  2.464110  0.000000
  0.000000  0.000000  0.000000


  -0.016897  -0.049328  0.000000
  -0.049328  1.691880  0.000000
  0.000000  0.000000  0.000000


  6.257035  -7.697975  0.000000
  -7.697975  9.039205  0.000000
  0.000000  0.000000  0.000000


  22.221457  -5.213152  0.000000
  -5.213152  0.933969  0.000000
  0.000000  0.000000  0.000000


  1.052215  -2.998968  0.000000
  -2.998968  7.665317  0.000000
  0.000000  0.000000  0.000000


  14.779391  -9.267468  0.000000
  -9.267468  5.549297  0.000000
  0.000000  0.000000  0.000000


  0.152254  -1.008024  0.000000
  -1.008024  4.905854  0.000000
  0.000000  0.000000  0.000000


  10.386378  -9.112084  0.000000
  -9.112084  7.693451  0.000000
  0.000000  0.000000  0.000000


  23.606796  -1.679757  0.000000
  -1.679757  -0.134906  0.000000
  0.000000  0.000000  0.000000


  3.071488  -5.415610  0.000000
  -5.415610  9.105476  0.000000
  0.000000  0.000000  0.000000


  18.998238  -7.933488  0.000000
  -7.933488  3.008338  0.000000
  0.000000  0.000000  0.000000


  0.026973  -0.373041  0.000000
  -0.373041  3.198660  0.000000
  0.000000  0.000000  0.000000


  8.225914  -8.496807  0.000000
  -8.496807  8.508552  0.000000
  0.000000  0.000000  0.000000


  23.222112  -3.534953  0.000000
  -3.534953  0.358366  0.000000
  0.000000  0.000000  0.000000


  1.904904  -4.170720  0.000000
  -4.170720  8.559560  0.000000
  0.000000  0.000000  0.000000


  17.042982  -8.761379  0.000000
  -8.761379  4.238274  0.000000
  0.000000  0.000000  0.000000


  0.486910  -1.901059  0.000000
  -1.901059  6.450081  0.000000
  0.000000  0.000000  0.000000


  4.501846  -6.608594  0.000000
  -6.608594  9.301756  0.000000
  0.000000  0.000000  0.000000


  12.580480  -9.329758  0.000000
  -9.329758  6.692945  0.000000
  0.000000  0.000000  0.000000


  20.814753  -6.733178  0.000000
  -6.733178  1.861834  0.000000
  0.000000  0.000000  0.000000


  -0.034219  -0.028884  0.000000
  -0.028884  1.470075  0.000000
  0.000000  0.000000  0.000000


  5.810586  -7.432950  0.000000
  -7.432950  9.167025  0.000000
  0.000000  0.000000  0.000000


  21.681643  -5.605060  0.000000
  -5.605060  1.268049  0.000000
  0.000000  0.000000  0.000000


  0.902931  -2.692997  0.000000
  -2.692997  7.352803  0.000000
  0.000000  0.000000  0.000000


  14.238587  -9.369854  0.000000
  -9.369854  5.827153  0.000000
  0.000000  0.000000  0.000000


  0.085550  -0.816494  0.000000
  -0.816494  4.492333  0.000000
  0.000000  0.000000  0.000000


  9.821873  -8.994963  0.000000
  -8.994963  7.980802  0.000000
  0.000000  0.000000  0.000000


  23.590580  -2.043341  0.000000
  -2.043341  -0.077926  0.000000
  0.000000  0.000000  0.000000


  2.779456  -5.127079  0.000000
  -5.127079  9.023035  0.000000
  0.000000  0.000000  0.000000


  18.565427  -8.179391  0.000000
  -8.179391  3.381083  0.000000
  0.000000  0.000000  0.000000


  -0.007260  -0.256924  0.000000
  -0.256924  2.773356  0.000000
  0.000000  0.000000  0.000000


  7.649233  -8.303684  0.000000
  -8.303684  8.693378  0.000000
  0.000000  0.000000  0.000000


  22.917702  -3.979152  0.000000
  -3.979152  0.420976  0.000000
  0.000000  0.000000  0.000000


  1.671017  -3.901594  0.000000
  -3.901594  8.413055  0.000000
  0.000000  0.000000  0.000000


  16.474333  -8.946997  0.000000
  -8.946997  4.535080  0.000000
  0.000000  0.000000  0.000000


  0.393282  -1.675137  0.000000
  -1.675137  6.088268  0.000000
  0.000000  0.000000  0.000000


  12.053693  -9.335741  0.000000
  -9.335741  6.992321  0.000000
  0.000000  0.000000  0.000000


  25.335506  -0.805908  0.000000
  -0.805908  -0.057506  0.000000
  0.000000  0.000000  0.000000


  4.093494  -6.329421  0.000000
  -6.329421  9.278929  0.000000
  0.000000  0.000000  0.000000


  20.272306  -7.041090  0.000000
  -7.041090  2.164355  0.000000
  0.000000  0.000000  0.000000


  -0.021911  -0.099242  0.000000
  -0.099242  2.006406  0.000000
  0.000000  0.000000  0.000000


  6.752197  -7.924559  0.000000
  -7.924559  8.980693  0.000000
  0.000000  0.000000  0.000000


  22.550029  -4.792247  0.000000
  -4.792247  0.793058  0.000000
  0.000000  0.000000  0.000000


  1.240430  -3.283621  0.000000
  -3.283621  7.913410  0.000000
  0.000000  0.000000  0.000000


  15.291610  -9.163723  0.000000
  -9.163723  5.177161  0.000000
  0.000000  0.000000  0.000000


  0.214244  -1.219013  0.000000
  -1.219013  5.309880  0.000000
  0.000000  0.000000  0.000000


  10.847303  -9.227593  0.000000
  -9.227593  7.526513  0.000000
  0.000000  0.000000  0.000000


  23.863202  -1.200332  0.000000
  -1.200332  -0.127274  0.000000
  0.000000  0.000000  0.000000


  3.389108  -5.719784  0.000000
  -5.719784  9.196042  0.000000
  0.000000  0.000000  0.000000


  19.523217  -7.634276  0.000000
  -7.634276  2.754152  0.000000
  0.000000  0.000000  0.000000


  0.030333  -0.506393  0.000000
  -0.506393  3.630049  0.000000
  0.000000  0.000000  0.000000


  8.727398  -8.725323  0.000000
  -8.725323  8.337666  0.000000
  0.000000  0.000000  0.000000


  23.319022  -3.081500  0.000000
  -3.081500  0.193047  0.000000
  0.000000  0.000000  0.000000


  2.169559  -4.503621  0.000000
  -4.503621  8.722391  0.000000
  0.000000  0.000000  0.000000


  17.443411  -8.641172  0.000000
  -8.641172  4.012449  0.000000
  0.000000  0.000000  0.000000


  0.583030  -2.158290  0.000000
  -2.158290  6.772125  0.000000
  0.000000  0.000000  0.000000


  4.883549  -6.910738  0.000000
  -6.910738  9.269388  0.000000
  0.000000  0.000000  0.000000


  13.102021  -9.357081  0.000000
  -9.357081  6.364363  0.000000
  0.000000  0.000000  0.000000


  21.191546  -6.367989  0.000000
  -6.367989  1.677432  0.000000
  0.000000  0.000000  0.000000


  -0.250440  0.153311  0.000000
  0.153311  0.991481  0.000000
  0.000000  0.000000  0.000000


  5.280659  -7.118736  0.000000
  -7.118736  9.169815  0.000000
  0.000000  0.000000  0.000000


  21.451520  -6.076647  0.000000
  -6.076647  1.557748  0.000000
  0.000000  0.000000  0.000000


  0.730975  -2.371961  0.000000
  -2.371961  7.013510  0.000000
  0.000000  0.000000  0.000000


  13.450388  -9.275542  0.000000
  -9.275542  6.177544  0.000000
  0.000000  0.000000  0.000000


  0.037934  -0.611475  0.000000
  -0.611475  3.972189  0.000000
  0.000000  0.000000  0.000000


  9.108258  -8.820128  0.000000
  -8.820128  8.258743  0.000000
  0.000000  0.000000  0.000000


  23.369079  -2.703982  0.000000
  -2.703982  0.099163  0.000000
  0.000000  0.000000  0.000000


  2.391760  -4.717281  0.000000
  -4.717281  8.858729  0.000000
  0.000000  0.000000  0.000000


  17.942998  -8.452652  0.000000
  -8.452652  3.710603  0.000000
  0.000000  0.000000  0.000000


  -0.007758  -0.152420  0.000000
  -0.152420  2.281202  0.000000
  0.000000  0.000000  0.000000


  7.060202  -8.097319  0.000000
  -8.097319  8.848190  0.000000
  0.000000  0.000000  0.000000


  22.648300  -4.499812  0.000000
  -4.499812  0.649355  0.000000
  0.000000  0.000000  0.000000


  1.411552  -3.492737  0.000000
  -3.492737  8.124530  0.000000
  0.000000  0.000000  0.000000


  15.711824  -9.040876  0.000000
  -9.040876  4.964340  0.000000
  0.000000  0.000000  0.000000


  0.278277  -1.375203  0.000000
  -1.375203  5.619913  0.000000
  0.000000  0.000000  0.000000


  11.214197  -9.202285  0.000000
  -9.202285  7.270405  0.000000
  0.000000  0.000000  0.000000


  24.086573  -0.833542  0.000000
  -0.833542  -0.169451  0.000000
  0.000000  0.000000  0.000000


  3.691885  -5.963738  0.000000
  -5.963738  9.234722  0.000000
  0.000000  0.000000  0.000000


  19.759886  -7.420086  0.000000
  -7.420086  2.531007  0.000000
  0.000000  0.000000  0.000000


  -0.027070  -0.040420  0.000000
  -0.040420  1.627544  0.000000
  0.000000  0.000000  0.000000


  6.094743  -7.639125  0.000000
  -7.639125  9.115695  0.000000
  0.000000  0.000000  0.000000


  22.119989  -5.389393  0.000000
  -5.389393  1.025926  0.000000
  0.000000  0.000000  0.000000


  0.984203  -2.895081  0.000000
  -2.895081  7.601121  0.000000
  0.000000  0.000000  0.000000


  14.637564  -9.255461  0.000000
  -9.255461  5.523417  0.000000
  0.000000  0.000000  0.000000


  0.146664  -0.972057  0.000000
  -0.972057  4.816366  0.000000
  0.000000  0.000000  0.000000


  10.186301  -9.096938  0.000000
  -9.096938  7.839408  0.000000
  0.000000  0.000000  0.000000


  23.595521  -1.701607  0.000000
  -1.701607  -0.046244  0.000000
  0.000000  0.000000  0.000000


  2.974213  -5.339414  0.000000
  -5.339414  9.083880  0.000000
  0.000000  0.000000  0.000000


  18.924155  -8.011594  0.000000
  -8.011594  3.189078  0.000000
  0.000000  0.000000  0.000000


  0.001797  -0.341651  0.000000
  -0.341651  3.097528  0.000000
  0.000000  0.000000  0.000000


  8.058652  -8.495760  0.000000
  -8.495760  8.615160  0.000000
  0.000000  0.000000  0.000000


  23.165168  -3.599237  0.000000
  -3.599237  0.284135  0.000000
  0.000000  0.000000  0.000000


  1.891387  -4.121770  0.000000
  -4.121770  8.498639  0.000000
  0.000000  0.000000  0.000000


  16.801411  -8.827943  0.000000
  -8.827943  4.391308  0.000000
  0.000000  0.000000  0.000000


  0.455926  -1.841373  0.000000
  -1.841373  6.331126  0.000000
  0.000000  0.000000  0.000000


  4.407977  -6.544324  0.000000
  -6.544324  9.227912  0.000000
  0.000000  0.000000  0.000000


  12.417427  -9.365291  0.000000
  -9.365291  6.806978  0.000000
  0.000000  0.000000  0.000000


  20.622623  -6.899020  0.000000
  -6.899020  1.988406  0.000000
  0.000000  0.000000  0.000000


  -0.057453  -0.007154  0.000000
  -0.007154  1.434079  0.000000
  0.000000  0.000000  0.000000


  5.610852  -7.346783  0.000000
  -7.346783  9.164016  0.000000
  0.000000  0.000000  0.000000


  21.713200  -5.691049  0.000000
  -5.691049  1.294017  0.000000
  0.000000  0.000000  0.000000


  0.874366  -2.654137  0.000000
  -2.654137  7.314953  0.000000
  0.000000  0.000000  0.000000


  14.155452  -9.345735  0.000000
  -9.345735  5.918859  0.000000
  0.000000  0.000000  0.000000


  0.102970  -0.773097  0.000000
  -0.773097  4.362224  0.000000
  0.000000  0.000000  0.000000


  9.580604  -8.963553  0.000000
  -8.963553  7.999252  0.000000
  0.000000  0.000000  0.000000


  23.512280  -2.260185  0.000000
  -2.260185  0.007253  0.000000
  0.000000  0.000000  0.000000


  2.645321  -5.031243  0.000000
  -5.031243  8.969337  0.000000
  0.000000  0.000000  0.000000


  18.301672  -8.249230  0.000000
  -8.249230  3.424232  0.000000
  0.000000  0.000000  0.000000


  -0.002730  -0.229614  0.000000
  -0.229614  2.667075  0.000000
  0.000000  0.000000  0.000000


  7.502142  -8.251655  0.000000
  -8.251655  8.720757  0.000000
  0.000000  0.000000  0.000000


  22.905238  -4.016349  0.000000
  -4.016349  0.499818  0.000000
  0.000000  0.000000  0.000000


  1.549937  -3.758888  0.000000
  -3.758888  8.281272  0.000000
  0.000000  0.000000  0.000000


  16.271925  -9.011310  0.000000
  -9.011310  4.673915  0.000000
  0.000000  0.000000  0.000000


  0.344156  -1.599286  0.000000
  -1.599286  5.983366  0.000000
  0.000000  0.000000  0.000000


  11.818095  -9.344325  0.000000
  -9.344325  7.023388  0.000000
  0.000000  0.000000  0.000000


  24.898416  -0.687402  0.000000
  -0.687402  -0.093479  0.000000
  0.000000  0.000000  0.000000


  4.077633  -6.251963  0.000000
  -6.251963  9.265194  0.000000
  0.000000  0.000000  0.000000


  20.239304  -7.116189  0.000000
  -7.116189  2.268404  0.000000
  0.000000  0.000000  0.000000


  -0.019325  -0.087819  0.000000
  -0.087819  1.913488  0.000000
  0.000000  0.000000  0.000000


  6.548393  -7.858504  0.000000
  -7.858504  8.998120  0.000000
  0.000000  0.000000  0.000000


  22.390650  -4.958738  0.000000
  -4.958738  0.810607  0.000000
  0.000000  0.000000  0.000000


  1.212785  -3.200823  0.000000
  -3.200823  7.885856  0.000000
  0.000000  0.000000  0.000000


  15.247475  -9.166126  0.000000
  -9.166126  5.273929  0.000000
  0.000000  0.000000  0.000000


  0.198842  -1.159699  0.000000
  -1.159699  5.232955  0.000000
  0.000000  0.000000  0.000000


  10.663061  -9.130656  0.000000
  -9.130656  7.542473  0.000000
  0.000000  0.000000  0.000000


  23.804650  -1.237369  0.000000
  -1.237369  -0.195885  0.000000
  0.000000  0.000000  0.000000


  3.308795  -5.650035  0.000000
  -5.650035  9.113820  0.000000
  0.000000  0.000000  0.000000


  19.311641  -7.745691  0.000000
  -7.745691  2.877350  0.000000
  0.000000  0.000000  0.000000


  0.028165  -0.467601  0.000000
  -0.467601  3.539212  0.000000
  0.000000  0.000000  0.000000


  8.545654  -8.685466  0.000000
  -8.685466  8.432280  0.000000
  0.000000  0.000000  0.000000


  23.253978  -3.134719  0.000000
  -3.134719  0.160412  0.000000
  0.000000  0.000000  0.000000


  2.110221  -4.417550  0.000000
  -4.417550  8.731887  0.000000
  0.000000  0.000000  0.000000


  17.326705  -8.596451  0.000000
  -8.596451  4.027478  0.000000
  0.000000  0.000000  0.000000


  0.605337  -2.098594  0.000000
  -2.098594  6.671259  0.000000
  0.000000  0.000000  0.000000


  4.855144  -6.823904  0.000000
  -6.823904  9.275376  0.000000
  0.000000  0.000000  0.000000


  13.003451  -9.386078  0.000000
  -9.386078  6.526312  0.000000
  0.000000  0.000000  0.000000


  21.012647  -6.478191  0.000000
  -6.478191  1.723371  0.000000
  0.000000  0.000000  0.000000


  -0.079317  0.021831  0.000000
  0.021831  1.310757  0.000000
  0.000000  0.000000  0.000000


  5.391920  -7.226267  0.000000
  -7.226267  9.215342  0.000000
  0.000000  0.000000  0.000000


  21.703193  -5.934432  0.000000
  -5.934432  1.286104  0.000000
  0.000000  0.000000  0.000000


  0.797991  -2.506211  0.000000
  -2.506211  7.179686  0.000000
  0.000000  0.000000  0.000000


  13.833640  -9.289412  0.000000
  -9.289412  6.034872  0.000000
  0.000000  0.000000  0.000000


  0.063990  -0.693529  0.000000
  -0.693529  4.185283  0.000000
  0.000000  0.000000  0.000000


  9.329444  -8.874725  0.000000
  -8.874725  8.144060  0.000000
  0.000000  0.000000  0.000000


  23.551608  -2.490991  0.000000
  -2.490991  0.032609  0.000000
  0.000000  0.000000  0.000000


  2.506083  -4.861774  0.000000
  -4.861774  8.923349  0.000000
  0.000000  0.000000  0.000000


  18.091034  -8.364957  0.000000
  -8.364957  3.592084  0.000000
  0.000000  0.000000  0.000000


  -0.005469  -0.194657  0.000000
  -0.194657  2.474801  0.000000
  0.000000  0.000000  0.000000


  7.290653  -8.143771  0.000000
  -8.143771  8.723720  0.000000
  0.000000  0.000000  0.000000


  22.787884  -4.258797  0.000000
  -4.258797  0.515874  0.000000
  0.000000  0.000000  0.000000


  1.500628  -3.625931  0.000000
  -3.625931  8.269570  0.000000
  0.000000  0.000000  0.000000


  16.007772  -9.065371  0.000000
  -9.065371  4.858689  0.000000
  0.000000  0.000000  0.000000


  0.310994  -1.483399  0.000000
  -1.483399  5.806090  0.000000
  0.000000  0.000000  0.000000


  11.505758  -9.319306  0.000000
  -9.319306  7.151320  0.000000
  0.000000  0.000000  0.000000


  24.339446  -0.655251  0.000000
  -0.655251  -0.152792  0.000000
  0.000000  0.000000  0.000000


  3.889149  -6.111397  0.000000
  -6.111397  9.249217  0.000000
  0.000000  0.000000  0.000000


  20.025332  -7.211032  0.000000
  -7.211032  2.396039  0.000000
  0.000000  0.000000  0.000000


  -0.026387  -0.062897  0.000000
  -0.062897  1.765977  0.000000
  0.000000  0.000000  0.000000


  6.357398  -7.743368  0.000000
  -7.743368  9.093834  0.000000
  0.000000  0.000000  0.000000


  22.305604  -5.173219  0.000000
  -5.173219  0.988160  0.000000
  0.000000  0.000000  0.000000


  1.118484  -3.054995  0.000000
  -3.054995  7.761859  0.000000
  0.000000  0.000000  0.000000


  14.937855  -9.180922  0.000000
  -9.180922  5.408310  0.000000
  0.000000  0.000000  0.000000


  0.178201  -1.051269  0.000000
  -1.051269  5.007406  0.000000
  0.000000  0.000000  0.000000


  10.428449  -9.125542  0.000000
  -9.125542  7.675513  0.000000
  0.000000  0.000000  0.000000


  23.763934  -1.515311  0.000000
  -1.515311  -0.103672  0.000000
  0.000000  0.000000  0.000000


  3.147691  -5.506997  0.000000
  -5.506997  9.103855  0.000000
  0.000000  0.000000  0.000000


  19.144310  -7.890725  0.000000
  -7.890725  3.029697  0.000000
  0.000000  0.000000  0.000000


  0.002393  -0.394940  0.000000
  -0.394940  3.318918  0.000000
  0.000000  0.000000  0.000000


  8.266590  -8.570942  0.000000
  -8.570942  8.491001  0.000000
  0.000000  0.000000  0.000000


  23.224724  -3.391748  0.000000
  -3.391748  0.203905  0.000000
  0.000000  0.000000  0.000000


  1.977939  -4.251848  0.000000
  -4.251848  8.617425  0.000000
  0.000000  0.000000  0.000000


  17.027126  -8.718052  0.000000
  -8.718052  4.205911  0.000000
  0.000000  0.000000  0.000000


  0.512785  -1.976416  0.000000
  -1.976416  6.501495  0.000000
  0.000000  0.000000  0.000000


  4.646796  -6.674370  0.000000
  -6.674370  9.238670  0.000000
  0.000000  0.000000  0.000000


  12.649590  -9.402888  0.000000
  -9.402888  6.645509  0.000000
  0.000000  0.000000  0.000000


  20.918517  -6.688093  0.000000
  -6.688093  1.916888  0.000000
  0.000000  0.000000  0.000000


  -0.030217  -0.023167  0.000000
  -0.023167  1.522682  0.000000
  0.000000  0.000000  0.000000


  5.862908  -7.508303  0.000000
  -7.508303  9.135780  0.000000
  0.000000  0.000000  0.000000


  21.945147  -5.631951  0.000000
  -5.631951  1.159964  0.000000
  0.000000  0.000000  0.000000


  0.934522  -2.765916  0.000000
  -2.765916  7.416678  0.000000
  0.000000  0.000000  0.000000


  14.426034  -9.320998  0.000000
  -9.320998  5.694171  0.000000
  0.000000  0.000000  0.000000


  0.137397  -0.877158  0.000000
  -0.877158  4.590055  0.000000
  0.000000  0.000000  0.000000


  9.884891  -9.064666  0.000000
  -9.064666  7.922642  0.000000
  0.000000  0.000000  0.000000


  23.423022  -1.974510  0.000000
  -1.974510  -0.018562  0.000000
  0.000000  0.000000  0.000000


  2.801295  -5.207288  0.000000
  -5.207288  9.032890  0.000000
  0.000000  0.000000  0.000000


  18.641546  -8.170490  0.000000
  -8.170490  3.272850  0.000000
  0.000000  0.000000  0.000000


  -0.003953  -0.283797  0.000000
  -0.283797  2.891043  0.000000
  0.000000  0.000000  0.000000


  7.794647  -8.425859  0.000000
  -8.425859  8.713540  0.000000
  0.000000  0.000000  0.000000


  23.080316  -3.834261  0.000000
  -3.834261  0.443641  0.000000
  0.000000  0.000000  0.000000


  1.743988  -3.994319  0.000000
  -3.994319  8.424179  0.000000
  0.000000  0.000000  0.000000


  16.607360  -8.907400  0.000000
  -8.907400  4.553652  0.000000
  0.000000  0.000000  0.000000


  0.407511  -1.721241  0.000000
  -1.721241  6.152822  0.000000
  0.000000  0.000000  0.000000


  12.113484  -9.379489  0.000000
  -9.379489  6.908312  0.000000
  0.000000  0.000000  0.000000


  26.039234  -1.082796  0.000000
  -1.082796  0.000000  0.000000
  0.000000  0.000000  0.000000


  4.225520  -6.413716  0.000000
  -6.413716  9.250657  0.000000
  0.000000  0.000000  0.000000


  20.385258  -6.993160  0.000000
  -6.993160  2.155363  0.000000
  0.000000  0.000000  0.000000


  -0.005534  -0.118752  0.000000
  -0.118752  2.087397  0.000000
  0.000000  0.000000  0.000000


  6.800558  -7.947798  0.000000
  -7.947798  8.900986  0.000000
  0.000000  0.000000  0.000000


  22.457986  -4.686101  0.000000
  -4.686101  0.743953  0.000000
  0.000000  0.000000  0.000000


  1.306353  -3.350109  0.000000
  -3.350109  8.012484  0.000000
  0.000000  0.000000  0.000000


  15.509253  -9.133469  0.000000
  -9.133469  5.130091  0.000000
  0.000000  0.000000  0.000000


  0.242378  -1.260233  0.000000
  -1.260233  5.426753  0.000000
  0.000000  0.000000  0.000000


  11.059436  -9.208189  0.000000
  -9.208189  7.337042  0.000000
  0.000000  0.000000  0.000000


  23.865826  -1.016798  0.000000
  -1.016798  -0.145448  0.000000
  0.000000  0.000000  0.000000


  3.518836  -5.786669  0.000000
  -5.786669  9.158301  0.000000
  0.000000  0.000000  0.000000


  19.522535  -7.608984  0.000000
  -7.608984  2.674017  0.000000
  0.000000  0.000000  0.000000


  0.034964  -0.540132  0.000000
  -0.540132  3.751981  0.000000
  0.000000  0.000000  0.000000


  8.862353  -8.747862  0.000000
  -8.747862  8.370390  0.000000
  0.000000  0.000000  0.000000


  23.356183  -2.860473  0.000000
  -2.860473  0.122142  0.000000
  0.000000  0.000000  0.000000


  2.249989  -4.567194  0.000000
  -4.567194  8.807382  0.000000
  0.000000  0.000000  0.000000


  17.690498  -8.532122  0.000000
  -8.532122  3.864085  0.000000
  0.000000  0.000000  0.000000


  0.644985  -2.233835  0.000000
  -2.233835  6.831387  0.000000
  0.000000  0.000000  0.000000


  5.039470  -6.973581  0.000000
  -6.973581  9.220097  0.000000
  0.000000  0.000000  0.000000


  13.227996  -9.379797  0.000000
  -9.379797  6.374115  0.000000
  0.000000  0.000000  0.000000


  21.176676  -6.275724  0.000000
  -6.275724  1.612250  0.000000
  0.000000  0.000000  0.000000


  1.099596  0.860815  0.000000
  0.860815  -0.254871  0.000000
  0.000000  0.000000  0.000000


  -1.158130  0.831996  0.000000
  0.831996  0.240003  0.000000
  0.000000  0.000000  0.000000


  23.944236  -1.216415  0.000000
  -1.216415  0.000000  0.000000
  0.000000  0.000000  0.000000


  -27.205775  0.475664  0.000000
  0.475664  0.000000  0.000000
  0.000000  0.000000  0.000000


  -21.994007  9.400284  0.000000
  9.400284  -4.259707  0.000000
  0.000000  0.000000  0.000000


  -22.096750  9.316846  0.000000
  9.316846  -4.096810  0.000000
  0.000000  0.000000  0.000000


  -9.071603  9.536931  0.000000
  9.536931  -10.402921  0.000000
  0.000000  0.000000  0.000000


  -9.109670  9.625408  0.000000
  9.625408  -10.206117  0.000000
  0.000000  0.000000  0.000000


  -26.573168  5.855165  0.000000
  5.855165  -1.481805  0.000000
  0.000000  0.000000  0.000000


  -26.578806  5.836909  0.000000
  5.836909  -1.118277  0.000000
  0.000000  0.000000  0.000000


  -4.036250  6.468628  0.000000
  6.468628  -10.745047  0.000000
  0.000000  0.000000  0.000000


  -4.129848  6.699744  0.000000
  6.699744  -10.455662  0.000000
  0.000000  0.000000  0.000000


  -21.191402  9.754425  0.000000
  9.754425  -4.751898  0.000000
  0.000000  0.000000  0.000000


  -21.311890  9.603224  0.000000
  9.603224  -4.438503  0.000000
  0.000000  0.000000  0.000000


  -0.955016  2.678335  0.000000
  2.678335  -8.072362  0.000000
  0.000000  0.000000  0.000000


  -1.039967  2.882897  0.000000
  2.882897  -7.854915  0.000000
  0.000000  0.000000  0.000000


  -14.826882  10.919210  0.000000
  10.919210  -8.285478  0.000000
  0.000000  0.000000  0.000000


  -14.751811  11.093737  0.000000
  11.093737  -7.926877  0.000000
  0.000000  0.000000  0.000000


  -0.080775  0.426415  0.000000
  0.426415  -3.158637  0.000000
  0.000000  0.000000  0.000000


  -0.085914  0.659853  0.000000
  0.659853  -3.119204  0.000000
  0.000000  0.000000  0.000000


  -20.432987  9.938133  0.000000
  9.938133  -5.128288  0.000000
  0.000000  0.000000  0.000000


  -20.687039  9.692376  0.000000
  9.692376  -4.467168  0.000000
  0.000000  0.000000  0.000000


  -7.768524  8.969258  0.000000
  8.969258  -10.652504  0.000000
  0.000000  0.000000  0.000000


  -7.833343  9.111180  0.000000
  9.111180  -10.445075  0.000000
  0.000000  0.000000  0.000000


  -25.730929  7.025403  0.000000
  7.025403  -2.105908  0.000000
  0.000000  0.000000  0.000000


  -25.748525  6.990868  0.000000
  6.990868  -1.648675  0.000000
  0.000000  0.000000  0.000000


  -3.081511  5.584063  0.000000
  5.584063  -10.498201  0.000000
  0.000000  0.000000  0.000000


  -3.025606  5.795327  0.000000
  5.795327  -10.275182  0.000000
  0.000000  0.000000  0.000000


  -19.831487  10.184026  0.000000
  10.184026  -5.461942  0.000000
  0.000000  0.000000  0.000000


  -19.866981  10.207704  0.000000
  10.207704  -5.323063  0.000000
  0.000000  0.000000  0.000000


  -0.668678  2.025466  0.000000
  2.025466  -6.891180  0.000000
  0.000000  0.000000  0.000000


  -0.673979  2.133580  0.000000
  2.133580  -6.869333  0.000000
  0.000000  0.000000  0.000000


  -13.094008  10.615629  0.000000
  10.615629  -8.926148  0.000000
  0.000000  0.000000  0.000000


  -13.198430  10.661392  0.000000
  10.661392  -8.560131  0.000000
  0.000000  0.000000  0.000000


  -0.035443  0.180135  0.000000
  0.180135  -1.907988  0.000000
  0.000000  0.000000  0.000000


  -0.052948  0.403416  0.000000
  0.403416  -1.879787  0.000000
  0.000000  0.000000  0.000000


  -19.234385  10.676807  0.000000
  10.676807  -6.152211  0.000000
  0.000000  0.000000  0.000000


  -19.308397  10.645777  0.000000
  10.645777  -5.685173  0.000000
  0.000000  0.000000  0.000000


  -6.401491  8.244469  0.000000
  8.244469  -10.979800  0.000000
  0.000000  0.000000  0.000000


  -6.408282  8.439969  0.000000
  8.439969  -10.684035  0.000000
  0.000000  0.000000  0.000000


  -24.364375  7.980083  0.000000
  7.980083  -2.827205  0.000000
  0.000000  0.000000  0.000000


  -24.388432  7.950355  0.000000
  7.950355  -2.602145  0.000000
  0.000000  0.000000  0.000000


  -2.368020  4.704786  0.000000
  4.704786  -9.852977  0.000000
  0.000000  0.000000  0.000000


  -2.303146  4.817744  0.000000
  4.817744  -9.794339  0.000000
  0.000000  0.000000  0.000000


  -18.176118  10.579699  0.000000
  10.579699  -6.419954  0.000000
  0.000000  0.000000  0.000000


  -18.343378  10.483452  0.000000
  10.483452  -6.267478  0.000000
  0.000000  0.000000  0.000000


  -0.400363  1.396512  0.000000
  1.396512  -5.793853  0.000000
  0.000000  0.000000  0.000000


  -0.403442  1.556593  0.000000
  1.556593  -5.767909  0.000000
  0.000000  0.000000  0.000000


  -11.644259  10.334625  0.000000
  10.334625  -9.505538  0.000000
  0.000000  0.000000  0.000000


  -11.508529  10.501666  0.000000
  10.501666  -9.320462  0.000000
  0.000000  0.000000  0.000000


  -0.031751  0.104732  0.000000
  0.104732  -0.637963  0.000000
  0.000000  0.000000  0.000000


  0.466169  0.625782  0.000000
  0.625782  -0.558299  0.000000
  0.000000  0.000000  0.000000


  -17.404091  10.877341  0.000000
  10.877341  -6.997543  0.000000
  0.000000  0.000000  0.000000


  -17.541652  10.825260  0.000000
  10.825260  -6.569782  0.000000
  0.000000  0.000000  0.000000


  -5.225979  7.442058  0.000000
  7.442058  -10.974687  0.000000
  0.000000  0.000000  0.000000


  -5.244551  7.658280  0.000000
  7.658280  -10.676049  0.000000
  0.000000  0.000000  0.000000


  -23.198684  8.859306  0.000000
  8.859306  -3.660515  0.000000
  0.000000  0.000000  0.000000


  -23.446743  8.442883  0.000000
  8.442883  -3.008326  0.000000
  0.000000  0.000000  0.000000


  -1.702424  3.843432  0.000000
  3.843432  -9.175537  0.000000
  0.000000  0.000000  0.000000


  -1.721593  3.985382  0.000000
  3.985382  -9.098556  0.000000
  0.000000  0.000000  0.000000


  -16.680305  10.969557  0.000000
  10.969557  -7.457265  0.000000
  0.000000  0.000000  0.000000


  -16.843310  10.855193  0.000000
  10.855193  -6.911999  0.000000
  0.000000  0.000000  0.000000


  -0.197554  0.867881  0.000000
  0.867881  -4.625779  0.000000
  0.000000  0.000000  0.000000


  -0.284531  1.104728  0.000000
  1.104728  -4.542093  0.000000
  0.000000  0.000000  0.000000


  -9.895694  9.855568  0.000000
  9.855568  -10.176710  0.000000
  0.000000  0.000000  0.000000


  -10.284665  9.950154  0.000000
  9.950154  -9.610861  0.000000
  0.000000  0.000000  0.000000


  -15.700432  10.935655  0.000000
  10.935655  -7.859771  0.000000
  0.000000  0.000000  0.000000


  -15.820948  10.906092  0.000000
  10.906092  -7.528014  0.000000
  0.000000  0.000000  0.000000


  -4.220354  6.545121  0.000000
  6.545121  -10.661944  0.000000
  0.000000  0.000000  0.000000


  -3.924829  6.539870  0.000000
  6.539870  -10.732332  0.000000
  0.000000  0.000000  0.000000


  -28.002045  3.227650  0.000000
  3.227650  -0.601205  0.000000
  0.000000  0.000000  0.000000


  -27.992899  2.949831  0.000000
  2.949831  -0.360926  0.000000
  0.000000  0.000000  0.000000


  -6.109271  8.035589  0.000000
  8.035589  -11.044555  0.000000
  0.000000  0.000000  0.000000


  -6.626312  8.218685  0.000000
  8.218685  -10.190822  0.000000
  0.000000  0.000000  0.000000


  -15.050602  10.728418  0.000000
  10.728418  -7.975905  0.000000
  0.000000  0.000000  0.000000


  -14.137073  10.821785  0.000000
  10.821785  -8.366847  0.000000
  0.000000  0.000000  0.000000


  -0.110330  0.493014  0.000000
  0.493014  -3.272373  0.000000
  0.000000  0.000000  0.000000


  -0.094173  0.610116  0.000000
  0.610116  -3.269364  0.000000
  0.000000  0.000000  0.000000


  -18.094155  10.450509  0.000000
  10.450509  -6.403304  0.000000
  0.000000  0.000000  0.000000


  -16.712232  9.157003  0.000000
  9.157003  -5.778121  0.000000
  0.000000  0.000000  0.000000


  -0.336010  1.297583  0.000000
  1.297583  -5.724948  0.000000
  0.000000  0.000000  0.000000


  -0.456589  1.591111  0.000000
  1.591111  -5.476781  0.000000
  0.000000  0.000000  0.000000


  -14.116694  10.843384  0.000000
  10.843384  -8.642246  0.000000
  0.000000  0.000000  0.000000


  -14.460249  10.754622  0.000000
  10.754622  -7.890494  0.000000
  0.000000  0.000000  0.000000


  -3.274142  5.641583  0.000000
  5.641583  -10.317322  0.000000
  0.000000  0.000000  0.000000


  -2.948691  5.548588  0.000000
  5.548588  -10.436556  0.000000
  0.000000  0.000000  0.000000


  -27.518783  4.351061  0.000000
  4.351061  -0.921208  0.000000
  0.000000  0.000000  0.000000


  -27.358864  4.645183  0.000000
  4.645183  -0.794187  0.000000
  0.000000  0.000000  0.000000


  -4.987831  7.229449  0.000000
  7.229449  -10.981695  0.000000
  0.000000  0.000000  0.000000


  -5.461003  7.473487  0.000000
  7.473487  -10.179607  0.000000
  0.000000  0.000000  0.000000


  -13.462453  10.583768  0.000000
  10.583768  -8.530378  0.000000
  0.000000  0.000000  0.000000


  -12.604840  10.302137  0.000000
  10.302137  -8.852139  0.000000
  0.000000  0.000000  0.000000


  -0.041389  0.190296  0.000000
  0.190296  -2.079857  0.000000
  0.000000  0.000000  0.000000


  -0.071338  0.443235  0.000000
  0.443235  -1.989188  0.000000
  0.000000  0.000000  0.000000


  -16.431519  10.647924  0.000000
  10.647924  -7.283030  0.000000
  0.000000  0.000000  0.000000


  -15.319936  9.736974  0.000000
  9.736974  -7.063859  0.000000
  0.000000  0.000000  0.000000


  -0.213729  0.836935  0.000000
  0.836935  -4.396099  0.000000
  0.000000  0.000000  0.000000


  -0.330917  0.984718  0.000000
  0.984718  -3.937546  0.000000
  0.000000  0.000000  0.000000


  -12.454226  10.488082  0.000000
  10.488082  -9.194871  0.000000
  0.000000  0.000000  0.000000


  -12.388847  10.574818  0.000000
  10.574818  -9.081551  0.000000
  0.000000  0.000000  0.000000


  -2.379797  4.752697  0.000000
  4.752697  -10.072606  0.000000
  0.000000  0.000000  0.000000


  -2.693422  5.020172  0.000000
  5.020172  -9.470473  0.000000
  0.000000  0.000000  0.000000


  -28.489058  1.936342  0.000000
  1.936342  -0.334489  0.000000
  0.000000  0.000000  0.000000


  -28.490821  1.941287  0.000000
  1.941287  -0.088408  0.000000
  0.000000  0.000000  0.000000


  -7.401651  8.752298  0.000000
  8.752298  -10.840478  0.000000
  0.000000  0.000000  0.000000


  -7.990927  8.861118  0.000000
  8.861118  -9.997468  0.000000
  0.000000  0.000000  0.000000


  -11.832854  10.326157  0.000000
  10.326157  -9.186164  0.000000
  0.000000  0.000000  0.000000


  -11.016755  10.108869  0.000000
  10.108869  -9.511539  0.000000
  0.000000  0.000000  0.000000


  -0.054845  0.013319  0.000000
  0.013319  -0.889881  0.000000
  0.000000  0.000000  0.000000


  0.004525  0.416805  0.000000
  0.416805  -0.789153  0.000000
  0.000000  0.000000  0.000000


  -19.220020  10.321357  0.000000
  10.321357  -5.910663  0.000000
  0.000000  0.000000  0.000000


  -19.782749  9.783067  0.000000
  9.783067  -5.120492  0.000000
  0.000000  0.000000  0.000000


  -0.584312  1.898218  0.000000
  1.898218  -6.874338  0.000000
  0.000000  0.000000  0.000000


  -0.717901  2.192155  0.000000
  2.192155  -6.574954  0.000000
  0.000000  0.000000  0.000000


  -10.796922  10.128923  0.000000
  10.128923  -9.842430  0.000000
  0.000000  0.000000  0.000000


  -11.262498  10.078550  0.000000
  10.078550  -9.038434  0.000000
  0.000000  0.000000  0.000000


  -1.714118  3.849055  0.000000
  3.849055  -9.321102  0.000000
  0.000000  0.000000  0.000000


  -1.998114  4.181256  0.000000
  4.181256  -8.870448  0.000000
  0.000000  0.000000  0.000000


  -21.107169  9.650016  0.000000
  9.650016  -4.626935  0.000000
  0.000000  0.000000  0.000000


  -19.404199  8.607317  0.000000
  8.607317  -4.411835  0.000000
  0.000000  0.000000  0.000000


  -0.967544  2.632054  0.000000
  2.632054  -7.827000  0.000000
  0.000000  0.000000  0.000000


  -1.129200  2.630411  0.000000
  2.630411  -7.027137  0.000000
  0.000000  0.000000  0.000000


  -10.226895  9.930103  0.000000
  9.930103  -9.989900  0.000000
  0.000000  0.000000  0.000000


  -10.045763  10.018744  0.000000
  10.018744  -9.993750  0.000000
  0.000000  0.000000  0.000000


  -27.701486  0.562551  0.000000
  0.562551  -0.190362  0.000000
  0.000000  0.000000  0.000000


  -27.549076  1.066339  0.000000
  1.066339  0.434883  0.000000
  0.000000  0.000000  0.000000


  -9.054306  9.393754  0.000000
  9.393754  -10.221147  0.000000
  0.000000  0.000000  0.000000


  -8.589806  8.459358  0.000000
  8.459358  -9.091870  0.000000
  0.000000  0.000000  0.000000


  -1.369807  3.330732  0.000000
  3.330732  -8.688258  0.000000
  0.000000  0.000000  0.000000


  -1.326022  3.425564  0.000000
  3.425564  -8.623382  0.000000
  0.000000  0.000000  0.000000


  -26.426836  5.559808  0.000000
  5.559808  -1.461130  0.000000
  0.000000  0.000000  0.000000


  -24.139926  4.794320  0.000000
  4.794320  -1.381854  0.000000
  0.000000  0.000000  0.000000


  -4.254015  6.685057  0.000000
  6.685057  -10.889520  0.000000
  0.000000  0.000000  0.000000


  -4.460562  6.800674  0.000000
  6.800674  -10.477507  0.000000
  0.000000  0.000000  0.000000


  -27.938622  3.567518  0.000000
  3.567518  -0.713946  0.000000
  0.000000  0.000000  0.000000


  -27.930285  3.402701  0.000000
  3.402701  -0.157988  0.000000
  0.000000  0.000000  0.000000


  -1.060233  2.871951  0.000000
  2.871951  -8.302340  0.000000
  0.000000  0.000000  0.000000


  -1.159754  3.066901  0.000000
  3.066901  -8.082867  0.000000
  0.000000  0.000000  0.000000


  -14.425205  10.793405  0.000000
  10.793405  -8.445801  0.000000
  0.000000  0.000000  0.000000


  -14.946411  10.628764  0.000000
  10.628764  -7.547459  0.000000
  0.000000  0.000000  0.000000


  -0.095557  0.503685  0.000000
  0.503685  -3.520792  0.000000
  0.000000  0.000000  0.000000


  -0.143686  0.777584  0.000000
  0.777584  -3.369625  0.000000
  0.000000  0.000000  0.000000


  -17.690486  10.620802  0.000000
  10.620802  -6.713050  0.000000
  0.000000  0.000000  0.000000


  -17.166492  10.847686  0.000000
  10.847686  -6.999333  0.000000
  0.000000  0.000000  0.000000


  -0.902200  2.538237  0.000000
  2.538237  -7.804723  0.000000
  0.000000  0.000000  0.000000


  -0.891349  2.772205  0.000000
  2.772205  -7.720863  0.000000
  0.000000  0.000000  0.000000


  -25.515769  6.740022  0.000000
  6.740022  -2.093440  0.000000
  0.000000  0.000000  0.000000


  -23.948474  5.813349  0.000000
  5.813349  -1.799595  0.000000
  0.000000  0.000000  0.000000


  -3.294518  5.808562  0.000000
  5.808562  -10.630028  0.000000
  0.000000  0.000000  0.000000


  -3.461806  5.930835  0.000000
  5.930835  -10.284205  0.000000
  0.000000  0.000000  0.000000


  -27.239440  4.772524  0.000000
  4.772524  -1.065067  0.000000
  0.000000  0.000000  0.000000


  -27.258868  4.723721  0.000000
  4.723721  -0.999614  0.000000
  0.000000  0.000000  0.000000


  -0.749316  2.178877  0.000000
  2.178877  -7.203646  0.000000
  0.000000  0.000000  0.000000


  -0.733751  2.317557  0.000000
  2.317557  -7.159706  0.000000
  0.000000  0.000000  0.000000


  -12.688809  10.624755  0.000000
  10.624755  -9.050421  0.000000
  0.000000  0.000000  0.000000


  -12.948787  9.988684  0.000000
  9.988684  -8.232235  0.000000
  0.000000  0.000000  0.000000


  -0.051574  0.230717  0.000000
  0.230717  -2.200964  0.000000
  0.000000  0.000000  0.000000


  -0.039802  0.434166  0.000000
  0.434166  -2.222396  0.000000
  0.000000  0.000000  0.000000


  -16.077261  10.673444  0.000000
  10.673444  -7.455384  0.000000
  0.000000  0.000000  0.000000


  -15.465379  10.851450  0.000000
  10.851450  -7.869846  0.000000
  0.000000  0.000000  0.000000


  -0.593720  1.861618  0.000000
  1.861618  -6.614462  0.000000
  0.000000  0.000000  0.000000


  -0.602390  1.983407  0.000000
  1.983407  -6.592569  0.000000
  0.000000  0.000000  0.000000


  -24.323936  7.743573  0.000000
  7.743573  -2.771579  0.000000
  0.000000  0.000000  0.000000


  -22.027460  6.780995  0.000000
  6.780995  -2.627812  0.000000
  0.000000  0.000000  0.000000


  -2.534976  4.937144  0.000000
  4.937144  -10.095495  0.000000
  0.000000  0.000000  0.000000


  -2.489787  5.123053  0.000000
  5.123053  -9.977364  0.000000
  0.000000  0.000000  0.000000


  -28.461415  2.285610  0.000000
  2.285610  -0.384920  0.000000
  0.000000  0.000000  0.000000


  -28.454381  2.213336  0.000000
  2.213336  -0.113418  0.000000
  0.000000  0.000000  0.000000


  -0.458548  1.543429  0.000000
  1.543429  -6.080862  0.000000
  0.000000  0.000000  0.000000


  -0.464513  1.704847  0.000000
  1.704847  -6.052162  0.000000
  0.000000  0.000000  0.000000


  -11.199271  10.221555  0.000000
  10.221555  -9.777696  0.000000
  0.000000  0.000000  0.000000


  -11.764581  10.174317  0.000000
  10.174317  -8.889648  0.000000
  0.000000  0.000000  0.000000


  -0.031787  0.045536  0.000000
  0.045536  -1.164619  0.000000
  0.000000  0.000000  0.000000


  0.122341  0.297266  0.000000
  0.297266  -1.101875  0.000000
  0.000000  0.000000  0.000000


  -19.505464  10.335048  0.000000
  10.335048  -5.805467  0.000000
  0.000000  0.000000  0.000000


  -18.760256  10.554364  0.000000
  10.554364  -6.193186  0.000000
  0.000000  0.000000  0.000000


  -0.349541  1.271916  0.000000
  1.271916  -5.501802  0.000000
  0.000000  0.000000  0.000000


  -0.340304  1.422362  0.000000
  1.422362  -5.482942  0.000000
  0.000000  0.000000  0.000000


  -23.130461  8.692859  0.000000
  8.692859  -3.584469  0.000000
  0.000000  0.000000  0.000000


  -21.175310  7.748949  0.000000
  7.748949  -3.643097  0.000000
  0.000000  0.000000  0.000000


  -1.820075  4.036971  0.000000
  4.036971  -9.434103  0.000000
  0.000000  0.000000  0.000000


  -1.842779  4.236618  0.000000
  4.236618  -9.245802  0.000000
  0.000000  0.000000  0.000000


  -20.756010  9.781928  0.000000
  9.781928  -4.852712  0.000000
  0.000000  0.000000  0.000000


  -20.340681  10.063250  0.000000
  10.063250  -4.888445  0.000000
  0.000000  0.000000  0.000000


  -0.245573  1.002133  0.000000
  1.002133  -4.923964  0.000000
  0.000000  0.000000  0.000000


  -0.298576  1.240632  0.000000
  1.240632  -4.898812  0.000000
  0.000000  0.000000  0.000000


  -9.923094  9.770749  0.000000
  9.770749  -10.063358  0.000000
  0.000000  0.000000  0.000000


  -9.328595  8.729740  0.000000
  8.729740  -9.129034  0.000000
  0.000000  0.000000  0.000000


  -28.191680  0.658305  0.000000
  0.658305  -0.216695  0.000000
  0.000000  0.000000  0.000000


  -28.017384  1.185312  0.000000
  1.185312  0.173121  0.000000
  0.000000  0.000000  0.000000


  -0.162458  0.746213  0.000000
  0.746213  -4.333363  0.000000
  0.000000  0.000000  0.000000


  -0.168413  0.989302  0.000000
  0.989302  -4.259109  0.000000
  0.000000  0.000000  0.000000


  -27.845580  3.117798  0.000000
  3.117798  -0.680893  0.000000
  0.000000  0.000000  0.000000


  -27.496821  3.886308  0.000000
  3.886308  -0.597950  0.000000
  0.000000  0.000000  0.000000


  -6.665863  8.260587  0.000000
  8.260587  -10.717906  0.000000
  0.000000  0.000000  0.000000


  -6.175081  8.212634  0.000000
  8.212634  -10.936557  0.000000
  0.000000  0.000000  0.000000


  -24.336717  8.130991  0.000000
  8.130991  -2.939137  0.000000
  0.000000  0.000000  0.000000


  -24.291079  8.284651  0.000000
  8.284651  -2.431791  0.000000
  0.000000  0.000000  0.000000


  -0.132252  0.578666  0.000000
  0.578666  -3.606659  0.000000
  0.000000  0.000000  0.000000


  -0.139422  0.739262  0.000000
  0.739262  -3.605925  0.000000
  0.000000  0.000000  0.000000


  -17.780152  10.754998  0.000000
  10.754998  -6.745541  0.000000
  0.000000  0.000000  0.000000


  -17.882870  10.707202  0.000000
  10.707202  -6.437447  0.000000
  0.000000  0.000000  0.000000


  -0.390536  1.435267  0.000000
  1.435267  -6.014627  0.000000
  0.000000  0.000000  0.000000


  -0.524152  1.735489  0.000000
  1.735489  -5.752945  0.000000
  0.000000  0.000000  0.000000


  -11.153267  10.194306  0.000000
  10.194306  -9.666458  0.000000
  0.000000  0.000000  0.000000


  -11.067132  10.297255  0.000000
  10.297255  -9.544881  0.000000
  0.000000  0.000000  0.000000


  -0.074709  0.379010  0.000000
  0.379010  -3.003025  0.000000
  0.000000  0.000000  0.000000


  -0.141744  0.644043  0.000000
  0.644043  -2.871260  0.000000
  0.000000  0.000000  0.000000


  -27.245693  4.782662  0.000000
  4.782662  -1.133221  0.000000
  0.000000  0.000000  0.000000


  -27.319062  4.175378  0.000000
  4.175378  -0.723923  0.000000
  0.000000  0.000000  0.000000


  -5.479218  7.491419  0.000000
  7.491419  -10.745032  0.000000
  0.000000  0.000000  0.000000


  -5.051951  7.433067  0.000000
  7.433067  -10.916804  0.000000
  0.000000  0.000000  0.000000


  -23.036453  9.043795  0.000000
  9.043795  -3.772781  0.000000
  0.000000  0.000000  0.000000


  -23.071199  9.106459  0.000000
  9.106459  -3.174389  0.000000
  0.000000  0.000000  0.000000


  -0.037644  0.257952  0.000000
  0.257952  -2.435338  0.000000
  0.000000  0.000000  0.000000


  -0.088692  0.464357  0.000000
  0.464357  -2.288234  0.000000
  0.000000  0.000000  0.000000


  -16.123675  10.934635  0.000000
  10.934635  -7.642873  0.000000
  0.000000  0.000000  0.000000


  -16.167203  10.968011  0.000000
  10.968011  -7.339209  0.000000
  0.000000  0.000000  0.000000


  -0.217036  0.890923  0.000000
  0.890923  -4.808076  0.000000
  0.000000  0.000000  0.000000


  -0.343353  1.223105  0.000000
  1.223105  -4.604460  0.000000
  0.000000  0.000000  0.000000


  -9.568396  9.788560  0.000000
  9.788560  -10.354762  0.000000
  0.000000  0.000000  0.000000


  -9.796749  9.875167  0.000000
  9.875167  -9.781444  0.000000
  0.000000  0.000000  0.000000


  -0.049132  0.182592  0.000000
  0.182592  -1.734695  0.000000
  0.000000  0.000000  0.000000


  -0.107534  0.386229  0.000000
  0.386229  -1.468542  0.000000
  0.000000  0.000000  0.000000


  -28.298316  1.735655  0.000000
  1.735655  -0.419358  0.000000
  0.000000  0.000000  0.000000


  -28.003930  2.567505  0.000000
  2.567505  -0.397123  0.000000
  0.000000  0.000000  0.000000


  -7.696361  8.919521  0.000000
  8.919521  -10.800580  0.000000
  0.000000  0.000000  0.000000


  -8.266109  8.981914  0.000000
  8.981914  -10.040379  0.000000
  0.000000  0.000000  0.000000


  -25.609850  7.247516  0.000000
  7.247516  -2.248764  0.000000
  0.000000  0.000000  0.000000


  -25.544511  7.428774  0.000000
  7.428774  -1.837298  0.000000
  0.000000  0.000000  0.000000


  -0.056172  0.110677  0.000000
  0.110677  -1.208551  0.000000
  0.000000  0.000000  0.000000


  0.047472  0.144039  0.000000
  0.144039  -1.221486  0.000000
  0.000000  0.000000  0.000000


  -19.454048  10.345094  0.000000
  10.345094  -5.729879  0.000000
  0.000000  0.000000  0.000000


  -19.467937  10.396702  0.000000
  10.396702  -5.491938  0.000000
  0.000000  0.000000  0.000000


  -0.661193  2.070999  0.000000
  2.070999  -7.154899  0.000000
  0.000000  0.000000  0.000000


  -0.803054  2.374491  0.000000
  2.374491  -6.832641  0.000000
  0.000000  0.000000  0.000000


  -12.740759  10.422801  0.000000
  10.422801  -8.797046  0.000000
  0.000000  0.000000  0.000000


  -11.851183  10.160009  0.000000
  10.160009  -9.209676  0.000000
  0.000000  0.000000  0.000000


  0.123984  0.424488  0.000000
  0.424488  -0.185235  0.000000
  0.000000  0.000000  0.000000


  -20.726086  9.902328  0.000000
  9.902328  -4.989011  0.000000
  0.000000  0.000000  0.000000


  -20.969717  9.571602  0.000000
  9.571602  -4.407226  0.000000
  0.000000  0.000000  0.000000


  -1.107421  2.815014  0.000000
  2.815014  -7.992133  0.000000
  0.000000  0.000000  0.000000


  -1.022768  2.776802  0.000000
  2.776802  -8.013450  0.000000
  0.000000  0.000000  0.000000


  -14.472187  10.806236  0.000000
  10.806236  -8.372756  0.000000
  0.000000  0.000000  0.000000


  -14.116280  10.971338  0.000000
  10.971338  -8.388405  0.000000
  0.000000  0.000000  0.000000


  -27.649781  0.841364  0.000000
  0.841364  -0.340903  0.000000
  0.000000  0.000000  0.000000


  -27.549775  0.325987  0.000000
  0.325987  0.088096  0.000000
  0.000000  0.000000  0.000000


  -9.374255  9.604398  0.000000
  9.604398  -10.041625  0.000000
  0.000000  0.000000  0.000000


  -8.805875  9.311250  0.000000
  9.311250  -10.310478  0.000000
  0.000000  0.000000  0.000000


  -26.427914  6.017169  0.000000
  6.017169  -1.591647  0.000000
  0.000000  0.000000  0.000000


  -26.448440  6.011211  0.000000
  6.011211  -1.156306  0.000000
  0.000000  0.000000  0.000000


  -9.213748  9.705407  0.000000
  9.705407  -10.400282  0.000000
  0.000000  0.000000  0.000000


  -9.716419  9.306878  0.000000
  9.306878  -9.370152  0.000000
  0.000000  0.000000  0.000000


  -1.231101  3.123331  0.000000
  3.123331  -8.484281  0.000000
  0.000000  0.000000  0.000000


  -1.366263  3.289997  0.000000
  3.289997  -8.346729  0.000000
  0.000000  0.000000  0.000000


  -15.652372  10.693789  0.000000
  10.693789  -7.675456  0.000000
  0.000000  0.000000  0.000000


  -14.575429  9.572990  0.000000
  9.572990  -6.855264  0.000000
  0.000000  0.000000  0.000000


  -0.115892  0.596678  0.000000
  0.596678  -3.874700  0.000000
  0.000000  0.000000  0.000000


  -0.159343  0.875844  0.000000
  0.875844  -3.711247  0.000000
  0.000000  0.000000  0.000000


  -8.657025  9.431786  0.000000
  9.431786  -10.575110  0.000000
  0.000000  0.000000  0.000000


  -8.839812  9.486255  0.000000
  9.486255  -10.195553  0.000000
  0.000000  0.000000  0.000000


  -26.192724  6.492260  0.000000
  6.492260  -1.802035  0.000000
  0.000000  0.000000  0.000000


  -26.045775  6.793330  0.000000
  6.793330  -1.220990  0.000000
  0.000000  0.000000  0.000000


  -3.813139  6.252513  0.000000
  6.252513  -10.625916  0.000000
  0.000000  0.000000  0.000000


  -3.815925  6.408182  0.000000
  6.408182  -10.494496  0.000000
  0.000000  0.000000  0.000000


  -27.773583  4.185408  0.000000
  4.185408  -0.847238  0.000000
  0.000000  0.000000  0.000000


  -27.778221  4.206310  0.000000
  4.206310  -0.344029  0.000000
  0.000000  0.000000  0.000000


  -8.098202  9.110051  0.000000
  9.110051  -10.554111  0.000000
  0.000000  0.000000  0.000000


  -8.125176  9.201506  0.000000
  9.201506  -10.422577  0.000000
  0.000000  0.000000  0.000000


  -0.807087  2.363417  0.000000
  2.363417  -7.529853  0.000000
  0.000000  0.000000  0.000000


  -0.858623  2.606716  0.000000
  2.606716  -7.432279  0.000000
  0.000000  0.000000  0.000000


  -13.989950  10.617037  0.000000
  10.617037  -8.473975  0.000000
  0.000000  0.000000  0.000000


  -13.155958  9.585447  0.000000
  9.585447  -7.905159  0.000000
  0.000000  0.000000  0.000000


  -0.061477  0.301383  0.000000
  0.301383  -2.496019  0.000000
  0.000000  0.000000  0.000000


  -0.069193  0.466092  0.000000
  0.466092  -2.538537  0.000000
  0.000000  0.000000  0.000000


  -7.473587  8.852102  0.000000
  8.852102  -10.817140  0.000000
  0.000000  0.000000  0.000000


  -7.312302  8.916219  0.000000
  8.916219  -10.793337  0.000000
  0.000000  0.000000  0.000000


  -25.037277  7.559820  0.000000
  7.559820  -2.494440  0.000000
  0.000000  0.000000  0.000000


  -25.083162  7.481661  0.000000
  7.481661  -1.787766  0.000000
  0.000000  0.000000  0.000000


  -2.966788  5.393775  0.000000
  5.393775  -10.290203  0.000000
  0.000000  0.000000  0.000000


  -2.921221  5.467459  0.000000
  5.467459  -10.255204  0.000000
  0.000000  0.000000  0.000000


  -26.758690  5.525543  0.000000
  5.525543  -1.355455  0.000000
  0.000000  0.000000  0.000000


  -26.824588  5.076633  0.000000
  5.076633  -1.060737  0.000000
  0.000000  0.000000  0.000000


  -6.679299  8.386924  0.000000
  8.386924  -10.869651  0.000000
  0.000000  0.000000  0.000000


  -6.889576  8.428852  0.000000
  8.428852  -10.678002  0.000000
  0.000000  0.000000  0.000000


  -0.522576  1.697709  0.000000
  1.697709  -6.354381  0.000000
  0.000000  0.000000  0.000000


  -0.524930  1.834278  0.000000
  1.834278  -6.329816  0.000000
  0.000000  0.000000  0.000000


  -12.427414  10.378576  0.000000
  10.378576  -9.115955  0.000000
  0.000000  0.000000  0.000000


  -11.600189  9.369875  0.000000
  9.369875  -8.234307  0.000000
  0.000000  0.000000  0.000000


  -0.022202  0.068190  0.000000
  0.068190  -1.408179  0.000000
  0.000000  0.000000  0.000000


  0.024202  0.272507  0.000000
  0.272507  -1.340463  0.000000
  0.000000  0.000000  0.000000


  -6.104057  8.011442  0.000000
  8.011442  -10.857521  0.000000
  0.000000  0.000000  0.000000


  -6.278439  8.149121  0.000000
  8.149121  -10.560195  0.000000
  0.000000  0.000000  0.000000


  -23.944820  8.529245  0.000000
  8.529245  -3.231622  0.000000
  0.000000  0.000000  0.000000


  -23.935476  8.637646  0.000000
  8.637646  -2.739940  0.000000
  0.000000  0.000000  0.000000


  -2.203793  4.499666  0.000000
  4.499666  -9.694971  0.000000
  0.000000  0.000000  0.000000


  -2.168356  4.605514  0.000000
  4.605514  -9.640216  0.000000
  0.000000  0.000000  0.000000


  -28.146638  2.960525  0.000000
  2.960525  -0.551906  0.000000
  0.000000  0.000000  0.000000


  -28.100585  2.742285  0.000000
  2.742285  -0.197042  0.000000
  0.000000  0.000000  0.000000


  -5.441113  7.576834  0.000000
  7.576834  -11.006369  0.000000
  0.000000  0.000000  0.000000


  -5.464674  7.726816  0.000000
  7.726816  -10.792626  0.000000
  0.000000  0.000000  0.000000


  -0.291778  1.132949  0.000000
  1.132949  -5.234016  0.000000
  0.000000  0.000000  0.000000


  -0.335168  1.360976  0.000000
  1.360976  -5.204133  0.000000
  0.000000  0.000000  0.000000


  -10.767081  10.042329  0.000000
  10.042329  -9.625098  0.000000
  0.000000  0.000000  0.000000


  -10.159850  8.904828  0.000000
  8.904828  -8.885690  0.000000
  0.000000  0.000000  0.000000


  -28.322295  1.412651  0.000000
  1.412651  -0.297492  0.000000
  0.000000  0.000000  0.000000


  -28.305101  1.584538  0.000000
  1.584538  -0.264719  0.000000
  0.000000  0.000000  0.000000


  -5.011807  7.249133  0.000000
  7.249133  -10.896062  0.000000
  0.000000  0.000000  0.000000


  -4.816154  7.285596  0.000000
  7.285596  -10.897103  0.000000
  0.000000  0.000000  0.000000


  -22.451212  9.246068  0.000000
  9.246068  -4.050744  0.000000
  0.000000  0.000000  0.000000


  -22.360780  9.426781  0.000000
  9.426781  -3.696363  0.000000
  0.000000  0.000000  0.000000


  -1.540336  3.606168  0.000000
  3.606168  -9.004697  0.000000
  0.000000  0.000000  0.000000


  -1.684766  3.790592  0.000000
  3.790592  -8.836064  0.000000
  0.000000  0.000000  0.000000


  -4.540193  6.853217  0.000000
  6.853217  -10.645819  0.000000
  0.000000  0.000000  0.000000


  -4.326201  6.698347  0.000000
  6.698347  -10.761050  0.000000
  0.000000  0.000000  0.000000


  -0.150844  0.664879  0.000000
  0.664879  -3.964157  0.000000
  0.000000  0.000000  0.000000


  -0.150588  0.832102  0.000000
  0.832102  -3.960826  0.000000
  0.000000  0.000000  0.000000


  -18.689480  10.667715  0.000000
  10.667715  -6.274590  0.000000
  0.000000  0.000000  0.000000


  -19.216044  10.149772  0.000000
  10.149772  -5.600271  0.000000
  0.000000  0.000000  0.000000


  -0.448571  1.582877  0.000000
  1.582877  -6.308407  0.000000
  0.000000  0.000000  0.000000


  -0.580274  1.876555  0.000000
  1.876555  -6.039911  0.000000
  0.000000  0.000000  0.000000


  -3.786082  6.201961  0.000000
  6.201961  -10.733139  0.000000
  0.000000  0.000000  0.000000


  -4.293616  6.434909  0.000000
  6.434909  -10.057824  0.000000
  0.000000  0.000000  0.000000


  -27.660262  3.780272  0.000000
  3.780272  -0.814644  0.000000
  0.000000  0.000000  0.000000


  -27.218166  4.563022  0.000000
  4.563022  -0.746051  0.000000
  0.000000  0.000000  0.000000


  -6.036385  7.853668  0.000000
  7.853668  -10.739215  0.000000
  0.000000  0.000000  0.000000


  -6.252669  7.476752  0.000000
  7.476752  -9.630618  0.000000
  0.000000  0.000000  0.000000


  -23.443654  8.635965  0.000000
  8.635965  -3.488948  0.000000
  0.000000  0.000000  0.000000


  -23.771671  7.997536  0.000000
  7.997536  -2.710841  0.000000
  0.000000  0.000000  0.000000


  -3.567701  5.925926  0.000000
  5.925926  -10.409525  0.000000
  0.000000  0.000000  0.000000


  -3.368883  5.802324  0.000000
  5.802324  -10.511946  0.000000
  0.000000  0.000000  0.000000


  -0.056787  0.309767  0.000000
  0.309767  -2.702878  0.000000
  0.000000  0.000000  0.000000


  -0.093989  0.571964  0.000000
  0.571964  -2.575665  0.000000
  0.000000  0.000000  0.000000


  -17.236381  10.510765  0.000000
  10.510765  -6.784319  0.000000
  0.000000  0.000000  0.000000


  -15.987029  9.379908  0.000000
  9.379908  -6.213182  0.000000
  0.000000  0.000000  0.000000


  -0.255880  1.016897  0.000000
  1.016897  -5.124204  0.000000
  0.000000  0.000000  0.000000


  -0.387650  1.347971  0.000000
  1.347971  -4.910572  0.000000
  0.000000  0.000000  0.000000


  -2.968853  5.395741  0.000000
  5.395741  -10.392713  0.000000
  0.000000  0.000000  0.000000


  -3.265492  5.743785  0.000000
  5.743785  -9.792900  0.000000
  0.000000  0.000000  0.000000


  -26.971850  5.061899  0.000000
  5.061899  -1.245013  0.000000
  0.000000  0.000000  0.000000


  -26.729683  5.452922  0.000000
  5.452922  -1.235997  0.000000
  0.000000  0.000000  0.000000


  -4.777942  7.108225  0.000000
  7.108225  -11.016321  0.000000
  0.000000  0.000000  0.000000


  -5.066402  7.275757  0.000000
  7.275757  -10.387352  0.000000
  0.000000  0.000000  0.000000


  -21.976423  9.386123  0.000000
  9.386123  -4.353227  0.000000
  0.000000  0.000000  0.000000


  -22.379585  8.850588  0.000000
  8.850588  -3.519686  0.000000
  0.000000  0.000000  0.000000


  -2.697850  5.013788  0.000000
  5.013788  -9.958677  0.000000
  0.000000  0.000000  0.000000


  -2.467628  4.903240  0.000000
  4.903240  -10.071054  0.000000
  0.000000  0.000000  0.000000


  -0.048271  0.123000  0.000000
  0.123000  -1.457789  0.000000
  0.000000  0.000000  0.000000


  -0.002560  0.195329  0.000000
  0.195329  -1.467029  0.000000
  0.000000  0.000000  0.000000


  -20.521521  9.887928  0.000000
  9.887928  -4.983546  0.000000
  0.000000  0.000000  0.000000


  -18.919306  8.827940  0.000000
  8.827940  -4.930911  0.000000
  0.000000  0.000000  0.000000


  -0.729915  2.237378  0.000000
  2.237378  -7.482334  0.000000
  0.000000  0.000000  0.000000


  -0.963194  2.577153  0.000000
  2.577153  -7.027891  0.000000
  0.000000  0.000000  0.000000


  -2.208764  4.523971  0.000000
  4.523971  -9.875223  0.000000
  0.000000  0.000000  0.000000


  -2.476409  4.811160  0.000000
  4.811160  -9.381736  0.000000
  0.000000  0.000000  0.000000


  -28.061547  2.414792  0.000000
  2.414792  -0.537754  0.000000
  0.000000  0.000000  0.000000


  -27.760789  3.154397  0.000000
  3.154397  -0.536690  0.000000
  0.000000  0.000000  0.000000


  -7.140562  8.772215  0.000000
  8.772215  -11.037613  0.000000
  0.000000  0.000000  0.000000


  -7.535906  8.769337  0.000000
  8.769337  -10.346167  0.000000
  0.000000  0.000000  0.000000


  -24.533993  7.582506  0.000000
  7.582506  -2.583076  0.000000
  0.000000  0.000000  0.000000


  -24.790499  6.825523  0.000000
  6.825523  -1.827139  0.000000
  0.000000  0.000000  0.000000


  -1.991978  4.144279  0.000000
  4.144279  -9.313437  0.000000
  0.000000  0.000000  0.000000


  -1.793788  4.063203  0.000000
  4.063203  -9.376034  0.000000
  0.000000  0.000000  0.000000


  -28.176180  1.480584  0.000000
  1.480584  -0.402274  0.000000
  0.000000  0.000000  0.000000


  -28.100452  0.865717  0.000000
  0.865717  -0.072284  0.000000
  0.000000  0.000000  0.000000


  -8.653425  9.281891  0.000000
  9.281891  -10.367704  0.000000
  0.000000  0.000000  0.000000


  -8.382553  8.475305  0.000000
  8.475305  -9.316772  0.000000
  0.000000  0.000000  0.000000


  -25.826219  6.603184  0.000000
  6.603184  -2.005681  0.000000
  0.000000  0.000000  0.000000


  -26.018044  6.000452  0.000000
  6.000452  -1.249492  0.000000
  0.000000  0.000000  0.000000


  -1.582894  3.648622  0.000000
  3.648622  -9.163126  0.000000
  0.000000  0.000000  0.000000


  -1.839774  3.972345  0.000000
  3.972345  -8.745077  0.000000
  0.000000  0.000000  0.000000


  -21.986505  9.344749  0.000000
  9.344749  -4.286773  0.000000
  0.000000  0.000000  0.000000


  -20.383035  8.251020  0.000000
  8.251020  -3.930605  0.000000
  0.000000  0.000000  0.000000


  -1.230332  3.004872  0.000000
  3.004872  -8.213440  0.000000
  0.000000  0.000000  0.000000


  -1.140247  2.964493  0.000000
  2.964493  -8.237602  0.000000
  0.000000  0.000000  0.000000


  -26.535316  5.330736  0.000000
  5.330736  -1.401192  0.000000
  0.000000  0.000000  0.000000


  -26.012016  6.115332  0.000000
  6.115332  -1.530026  0.000000
  0.000000  0.000000  0.000000


  -15.408576  10.894427  0.000000
  10.894427  -7.956209  0.000000
  0.000000  0.000000  0.000000


  -15.482372  10.994782  0.000000
  10.994782  -7.324674  0.000000
  0.000000  0.000000  0.000000


  -0.147822  0.684273  0.000000
  0.684273  -4.182098  0.000000
  0.000000  0.000000  0.000000


  -0.226632  0.999225  0.000000
  0.999225  -3.991078  0.000000
  0.000000  0.000000  0.000000


  -18.226520  10.572201  0.000000
  10.572201  -6.506793  0.000000
  0.000000  0.000000  0.000000


  -18.771142  10.182593  0.000000
  10.182593  -5.529048  0.000000
  0.000000  0.000000  0.000000


  -26.082160  6.265488  0.000000
  6.265488  -1.763264  0.000000
  0.000000  0.000000  0.000000


  -26.090498  5.438818  0.000000
  5.438818  -1.185239  0.000000
  0.000000  0.000000  0.000000


  -3.596107  6.023212  0.000000
  6.023212  -10.691513  0.000000
  0.000000  0.000000  0.000000


  -4.000667  6.299694  0.000000
  6.299694  -10.076521  0.000000
  0.000000  0.000000  0.000000


  -28.023492  3.931381  0.000000
  3.931381  -0.753751  0.000000
  0.000000  0.000000  0.000000


  -27.981264  3.681665  0.000000
  3.681665  -0.487788  0.000000
  0.000000  0.000000  0.000000


  -5.525833  7.706175  0.000000
  7.706175  -11.079501  0.000000
  0.000000  0.000000  0.000000


  -5.957690  7.813385  0.000000
  7.813385  -10.483500  0.000000
  0.000000  0.000000  0.000000


  -25.739606  6.574407  0.000000
  6.574407  -2.012994  0.000000
  0.000000  0.000000  0.000000


  -25.203396  7.257775  0.000000
  7.257775  -2.114703  0.000000
  0.000000  0.000000  0.000000


  -13.651243  10.783116  0.000000
  10.783116  -8.810276  0.000000
  0.000000  0.000000  0.000000


  -13.804145  10.841573  0.000000
  10.841573  -8.195618  0.000000
  0.000000  0.000000  0.000000


  -0.073073  0.359422  0.000000
  0.359422  -2.807632  0.000000
  0.000000  0.000000  0.000000


  -0.072857  0.553351  0.000000
  0.553351  -2.828005  0.000000
  0.000000  0.000000  0.000000


  -17.043722  10.822232  0.000000
  10.822232  -7.078461  0.000000
  0.000000  0.000000  0.000000


  -16.453978  10.927924  0.000000
  10.927924  -7.385138  0.000000
  0.000000  0.000000  0.000000


  -25.283247  7.333638  0.000000
  7.333638  -2.410704  0.000000
  0.000000  0.000000  0.000000


  -25.508247  6.771219  0.000000
  6.771219  -1.632724  0.000000
  0.000000  0.000000  0.000000


  -2.737385  5.233320  0.000000
  5.233320  -10.404921  0.000000
  0.000000  0.000000  0.000000


  -3.074032  5.404508  0.000000
  5.404508  -9.821380  0.000000
  0.000000  0.000000  0.000000


  -27.223493  5.233627  0.000000
  5.233627  -1.214708  0.000000
  0.000000  0.000000  0.000000


  -27.234211  4.995357  0.000000
  4.995357  -0.843267  0.000000
  0.000000  0.000000  0.000000


  -4.488587  6.866582  0.000000
  6.866582  -10.916122  0.000000
  0.000000  0.000000  0.000000


  -4.534437  7.108762  0.000000
  7.108762  -10.449102  0.000000
  0.000000  0.000000  0.000000


  -24.538037  7.517276  0.000000
  7.517276  -2.602106  0.000000
  0.000000  0.000000  0.000000


  -23.806146  8.055148  0.000000
  8.055148  -2.965981  0.000000
  0.000000  0.000000  0.000000


  -12.039234  10.493444  0.000000
  10.493444  -9.471442  0.000000
  0.000000  0.000000  0.000000


  -12.237639  10.533387  0.000000
  10.533387  -8.915957  0.000000
  0.000000  0.000000  0.000000


  -0.024459  0.121027  0.000000
  0.121027  -1.682537  0.000000
  0.000000  0.000000  0.000000


  -0.035824  0.304048  0.000000
  0.304048  -1.585825  0.000000
  0.000000  0.000000  0.000000


  -19.700292  10.221753  0.000000
  10.221753  -5.620216  0.000000
  0.000000  0.000000  0.000000


  -20.190007  9.700906  0.000000
  9.700906  -4.765972  0.000000
  0.000000  0.000000  0.000000


  -23.916206  8.276338  0.000000
  8.276338  -3.169081  0.000000
  0.000000  0.000000  0.000000


  -24.199044  7.660687  0.000000
  7.660687  -2.335513  0.000000
  0.000000  0.000000  0.000000


  -2.050898  4.316381  0.000000
  4.316381  -9.717936  0.000000
  0.000000  0.000000  0.000000


  -2.314569  4.595577  0.000000
  4.595577  -9.254710  0.000000
  0.000000  0.000000  0.000000


  -28.330668  2.581844  0.000000
  2.581844  -0.443031  0.000000
  0.000000  0.000000  0.000000


  -28.306072  2.279461  0.000000
  2.279461  -0.157068  0.000000
  0.000000  0.000000  0.000000


  -6.743681  8.394013  0.000000
  8.394013  -10.952431  0.000000
  0.000000  0.000000  0.000000


  -7.277457  8.526908  0.000000
  8.526908  -10.185800  0.000000
  0.000000  0.000000  0.000000


  -23.544341  8.601536  0.000000
  8.601536  -3.392718  0.000000
  0.000000  0.000000  0.000000


  -23.264864  8.891094  0.000000
  8.891094  -3.302018  0.000000
  0.000000  0.000000  0.000000


  -10.624973  10.104334  0.000000
  10.104334  -9.924187  0.000000
  0.000000  0.000000  0.000000


  -10.465324  10.315568  0.000000
  10.315568  -9.690170  0.000000
  0.000000  0.000000  0.000000


  -28.295965  0.995634  0.000000
  0.995634  -0.251401  0.000000
  0.000000  0.000000  0.000000


  -28.170014  1.387045  0.000000
  1.387045  -0.030393  0.000000
  0.000000  0.000000  0.000000


  -8.045581  9.107266  0.000000
  9.107266  -10.728887  0.000000
  0.000000  0.000000  0.000000


  -8.603776  9.205518  0.000000
  9.205518  -9.868821  0.000000
  0.000000  0.000000  0.000000


  -22.627898  9.143710  0.000000
  9.143710  -3.951312  0.000000
  0.000000  0.000000  0.000000


  -22.884322  8.402942  0.000000
  8.402942  -2.999630  0.000000
  0.000000  0.000000  0.000000


  -1.534951  3.538828  0.000000
  3.538828  -8.864894  0.000000
  0.000000  0.000000  0.000000


  -1.681975  3.420584  0.000000
  3.420584  -7.964851  0.000000
  0.000000  0.000000  0.000000


  -21.230542  9.720217  0.000000
  9.720217  -4.806881  0.000000
  0.000000  0.000000  0.000000


  -21.710600  9.060346  0.000000
  9.060346  -4.000231  0.000000
  0.000000  0.000000  0.000000


  -28.174773  2.703125  0.000000
  2.703125  -0.423149  0.000000
  0.000000  0.000000  0.000000


  -27.698032  3.351244  0.000000
  3.351244  -0.497650  0.000000
  0.000000  0.000000  0.000000


  -18.695482  10.564138  0.000000
  10.564138  -6.284121  0.000000
  0.000000  0.000000  0.000000


  -18.616791  10.766956  0.000000
  10.766956  -5.874273  0.000000
  0.000000  0.000000  0.000000


  -0.514159  1.735341  0.000000
  1.735341  -6.586401  0.000000
  0.000000  0.000000  0.000000


  -0.654431  2.027510  0.000000
  2.027510  -6.301876  0.000000
  0.000000  0.000000  0.000000


  -11.677450  10.481725  0.000000
  10.481725  -9.542625  0.000000
  0.000000  0.000000  0.000000


  -12.078139  9.916324  0.000000
  9.916324  -8.518806  0.000000
  0.000000  0.000000  0.000000


  -28.122451  3.428116  0.000000
  3.428116  -0.592592  0.000000
  0.000000  0.000000  0.000000


  -27.560364  4.060640  0.000000
  4.060640  -0.770472  0.000000
  0.000000  0.000000  0.000000


  -5.770175  7.871616  0.000000
  7.871616  -11.058770  0.000000
  0.000000  0.000000  0.000000


  -5.744268  8.002525  0.000000
  8.002525  -10.874581  0.000000
  0.000000  0.000000  0.000000


  -23.902401  8.221168  0.000000
  8.221168  -3.129056  0.000000
  0.000000  0.000000  0.000000


  -23.314526  8.802282  0.000000
  8.802282  -3.270341  0.000000
  0.000000  0.000000  0.000000


  -1.980110  4.221036  0.000000
  4.221036  -9.515080  0.000000
  0.000000  0.000000  0.000000


  -2.155487  4.400749  0.000000
  4.400749  -9.322891  0.000000
  0.000000  0.000000  0.000000


  -27.375577  4.485906  0.000000
  4.485906  -1.023720  0.000000
  0.000000  0.000000  0.000000


  -27.421751  3.633882  0.000000
  3.633882  -0.464328  0.000000
  0.000000  0.000000  0.000000


  -16.946222  10.773027  0.000000
  10.773027  -7.166460  0.000000
  0.000000  0.000000  0.000000


  -17.001461  10.812904  0.000000
  10.812904  -6.768053  0.000000
  0.000000  0.000000  0.000000


  -0.306860  1.160258  0.000000
  1.160258  -5.383252  0.000000
  0.000000  0.000000  0.000000


  -0.387458  1.463963  0.000000
  1.463963  -5.256171  0.000000
  0.000000  0.000000  0.000000


  -10.257594  9.963121  0.000000
  9.963121  -10.113127  0.000000
  0.000000  0.000000  0.000000


  -10.776624  9.996391  0.000000
  9.996391  -9.211128  0.000000
  0.000000  0.000000  0.000000


  -27.261480  4.764434  0.000000
  4.764434  -1.129725  0.000000
  0.000000  0.000000  0.000000


  -25.113028  4.077352  0.000000
  4.077352  -1.242524  0.000000
  0.000000  0.000000  0.000000


  -4.711059  6.915889  0.000000
  6.915889  -10.738568  0.000000
  0.000000  0.000000  0.000000


  -4.344820  6.891508  0.000000
  6.891508  -10.855339  0.000000
  0.000000  0.000000  0.000000


  -22.417344  8.957416  0.000000
  8.957416  -3.839911  0.000000
  0.000000  0.000000  0.000000


  -21.780213  9.432456  0.000000
  9.432456  -4.154596  0.000000
  0.000000  0.000000  0.000000


  -1.382681  3.381859  0.000000
  3.381859  -8.901109  0.000000
  0.000000  0.000000  0.000000


  -1.559697  3.661423  0.000000
  3.661423  -8.528876  0.000000
  0.000000  0.000000  0.000000


  -28.271067  1.379325  0.000000
  1.379325  -0.403245  0.000000
  0.000000  0.000000  0.000000


  -25.742535  1.169946  0.000000
  1.169946  -0.702344  0.000000
  0.000000  0.000000  0.000000


  -20.223422  10.132686  0.000000
  10.132686  -5.329436  0.000000
  0.000000  0.000000  0.000000


  -20.250336  10.193195  0.000000
  10.193195  -4.981916  0.000000
  0.000000  0.000000  0.000000


  -0.832867  2.379117  0.000000
  2.379117  -7.692964  0.000000
  0.000000  0.000000  0.000000


  -1.041185  2.725395  0.000000
  2.725395  -7.354305  0.000000
  0.000000  0.000000  0.000000


  -13.320506  10.705555  0.000000
  10.705555  -8.814694  0.000000
  0.000000  0.000000  0.000000


  -13.651146  10.098332  0.000000
  10.098332  -7.677593  0.000000
  0.000000  0.000000  0.000000


  -28.317929  2.084695  0.000000
  2.084695  -0.449975  0.000000
  0.000000  0.000000  0.000000


  -28.080002  2.721369  0.000000
  2.721369  -0.322771  0.000000
  0.000000  0.000000  0.000000


  -7.080088  8.583572  0.000000
  8.583572  -10.819726  0.000000
  0.000000  0.000000  0.000000


  -7.073154  8.739211  0.000000
  8.739211  -10.631594  0.000000
  0.000000  0.000000  0.000000


  -25.065122  7.203555  0.000000
  7.203555  -2.397998  0.000000
  0.000000  0.000000  0.000000


  -24.553932  7.819156  0.000000
  7.819156  -2.381235  0.000000
  0.000000  0.000000  0.000000


  -2.706316  5.088740  0.000000
  5.088740  -10.141931  0.000000
  0.000000  0.000000  0.000000


  -2.735534  5.268400  0.000000
  5.268400  -9.966587  0.000000
  0.000000  0.000000  0.000000


  -28.114573  1.079202  0.000000
  1.079202  -0.329650  0.000000
  0.000000  0.000000  0.000000


  -28.016295  0.582702  0.000000
  0.582702  0.016243  0.000000
  0.000000  0.000000  0.000000


  -8.370916  9.317396  0.000000
  9.317396  -10.663454  0.000000
  0.000000  0.000000  0.000000


  -8.411062  9.472598  0.000000
  9.472598  -10.338569  0.000000
  0.000000  0.000000  0.000000


  -25.844846  6.225572  0.000000
  6.225572  -1.755766  0.000000
  0.000000  0.000000  0.000000


  -25.297981  6.915756  0.000000
  6.915756  -1.910883  0.000000
  0.000000  0.000000  0.000000


  -3.553014  6.002113  0.000000
  6.002113  -10.552475  0.000000
  0.000000  0.000000  0.000000


  -3.727153  6.195207  0.000000
  6.195207  -10.277929  0.000000
  0.000000  0.000000  0.000000


  -21.848384  9.627318  0.000000
  9.627318  -4.469997  0.000000
  0.000000  0.000000  0.000000


  -21.943275  9.636554  0.000000
  9.636554  -4.024709  0.000000
  0.000000  0.000000  0.000000


  -1.287921  3.193938  0.000000
  3.193938  -8.583483  0.000000
  0.000000  0.000000  0.000000


  -1.433581  3.496603  0.000000
  3.496603  -8.341596  0.000000
  0.000000  0.000000  0.000000


  -14.987142  10.737187  0.000000
  10.737187  -7.977235  0.000000
  0.000000  0.000000  0.000000


  -15.559900  10.450552  0.000000
  10.450552  -6.984292  0.000000
  0.000000  0.000000  0.000000


  -27.225786  0.796887  0.000000
  0.796887  -0.053695  0.000000
  0.000000  0.000000  0.000000


  5.096569  -6.719379  0.000000
  -6.719379  8.956459  0.000000
  0.000000  0.000000  0.000000


  4.675023  -6.933616  0.000000
  -6.933616  8.884676  0.000000
  0.000000  0.000000  0.000000


  22.094799  -3.644429  0.000000
  -3.644429  0.681645  0.000000
  0.000000  0.000000  0.000000


  21.937505  -3.966584  0.000000
  -3.966584  0.174122  0.000000
  0.000000  0.000000  0.000000


  1.174730  -2.910408  0.000000
  -2.910408  7.458064  0.000000
  0.000000  0.000000  0.000000


  0.942237  -2.952433  0.000000
  -2.952433  7.489996  0.000000
  0.000000  0.000000  0.000000


  10.262869  -8.608106  0.000000
  -8.608106  7.343419  0.000000
  0.000000  0.000000  0.000000


  10.188820  -8.822718  0.000000
  -8.822718  6.875225  0.000000
  0.000000  0.000000  0.000000


  12.093429  -8.903738  0.000000
  -8.903738  6.660082  0.000000
  0.000000  0.000000  0.000000


  11.875575  -9.188039  0.000000
  -9.188039  6.326300  0.000000
  0.000000  0.000000  0.000000


  1.871783  -3.874591  0.000000
  -3.874591  8.188349  0.000000
  0.000000  0.000000  0.000000


  1.510826  -3.919887  0.000000
  -3.919887  8.237667  0.000000
  0.000000  0.000000  0.000000


  0.109707  -0.613444  0.000000
  -0.613444  3.835381  0.000000
  0.000000  0.000000  0.000000


  -0.039676  -0.474163  0.000000
  -0.474163  3.888048  0.000000
  0.000000  0.000000  0.000000


  11.745695  -8.805756  0.000000
  -8.805756  6.692757  0.000000
  0.000000  0.000000  0.000000


  11.499857  -9.026178  0.000000
  -9.026178  6.541534  0.000000
  0.000000  0.000000  0.000000


  19.274993  -6.974448  0.000000
  -6.974448  2.614648  0.000000
  0.000000  0.000000  0.000000


  19.232035  -7.151945  0.000000
  -7.151945  1.881262  0.000000
  0.000000  0.000000  0.000000


  0.077546  -0.460899  0.000000
  -0.460899  3.418565  0.000000
  0.000000  0.000000  0.000000


  -0.050886  -0.371432  0.000000
  -0.371432  3.487237  0.000000
  0.000000  0.000000  0.000000


  23.092530  -0.791484  0.000000
  -0.791484  0.108571  0.000000
  0.000000  0.000000  0.000000


  22.962292  -1.188361  0.000000
  -1.188361  -0.440081  0.000000
  0.000000  0.000000  0.000000


  3.427154  -5.464541  0.000000
  -5.464541  8.876054  0.000000
  0.000000  0.000000  0.000000


  3.064259  -5.611441  0.000000
  -5.611441  8.873904  0.000000
  0.000000  0.000000  0.000000


  0.016270  -0.044792  0.000000
  -0.044792  1.411349  0.000000
  0.000000  0.000000  0.000000


  -0.095006  0.065437  0.000000
  0.065437  1.396496  0.000000
  0.000000  0.000000  0.000000


  0.842279  -2.361899  0.000000
  -2.361899  6.840065  0.000000
  0.000000  0.000000  0.000000


  0.509236  -2.229763  0.000000
  -2.229763  6.900010  0.000000
  0.000000  0.000000  0.000000


  15.683105  -8.436933  0.000000
  -8.436933  4.620925  0.000000
  0.000000  0.000000  0.000000


  15.529076  -8.661262  0.000000
  -8.661262  4.319304  0.000000
  0.000000  0.000000  0.000000


  0.029131  -0.216020  0.000000
  -0.216020  2.489992  0.000000
  0.000000  0.000000  0.000000


  -0.068219  -0.062729  0.000000
  -0.062729  2.523592  0.000000
  0.000000  0.000000  0.000000


  6.029928  -7.211726  0.000000
  -7.211726  8.737415  0.000000
  0.000000  0.000000  0.000000


  5.696011  -7.347325  0.000000
  -7.347325  8.743402  0.000000
  0.000000  0.000000  0.000000


  2.272150  -4.332785  0.000000
  -4.332785  8.459945  0.000000
  0.000000  0.000000  0.000000


  2.036707  -4.442724  0.000000
  -4.442724  8.426605  0.000000
  0.000000  0.000000  0.000000


  0.564892  -1.825523  0.000000
  -1.825523  6.201464  0.000000
  0.000000  0.000000  0.000000


  0.327872  -1.814544  0.000000
  -1.814544  6.267260  0.000000
  0.000000  0.000000  0.000000


  22.549202  -2.317814  0.000000
  -2.317814  0.320475  0.000000
  0.000000  0.000000  0.000000


  22.534766  -2.164763  0.000000
  -2.164763  -0.399216  0.000000
  0.000000  0.000000  0.000000


  17.178583  -7.986511  0.000000
  -7.986511  3.809458  0.000000
  0.000000  0.000000  0.000000


  16.775638  -8.396289  0.000000
  -8.396289  3.488902  0.000000
  0.000000  0.000000  0.000000


  0.018085  -0.110629  0.000000
  -0.110629  1.935933  0.000000
  0.000000  0.000000  0.000000


  -0.071250  -0.012972  0.000000
  -0.012972  1.977395  0.000000
  0.000000  0.000000  0.000000


  8.208435  -8.152855  0.000000
  -8.152855  8.203312  0.000000
  0.000000  0.000000  0.000000


  7.680042  -8.330577  0.000000
  -8.330577  8.220131  0.000000
  0.000000  0.000000  0.000000


  16.566950  -8.137627  0.000000
  -8.137627  4.089110  0.000000
  0.000000  0.000000  0.000000


  16.578202  -8.278642  0.000000
  -8.278642  3.471180  0.000000
  0.000000  0.000000  0.000000


  9.468830  -8.501198  0.000000
  -8.501198  7.734151  0.000000
  0.000000  0.000000  0.000000


  8.946258  -8.715559  0.000000
  -8.715559  7.731389  0.000000
  0.000000  0.000000  0.000000


  20.870931  -5.458422  0.000000
  -5.458422  1.504454  0.000000
  0.000000  0.000000  0.000000


  20.858168  -5.557395  0.000000
  -5.557395  0.736923  0.000000
  0.000000  0.000000  0.000000


  1.461710  -3.326774  0.000000
  -3.326774  7.809559  0.000000
  0.000000  0.000000  0.000000


  1.206577  -3.369544  0.000000
  -3.369544  7.858110  0.000000
  0.000000  0.000000  0.000000


  0.305215  -1.210404  0.000000
  -1.210404  5.219884  0.000000
  0.000000  0.000000  0.000000


  0.122846  -1.161980  0.000000
  -1.161980  5.291786  0.000000
  0.000000  0.000000  0.000000


  22.795943  -1.467934  0.000000
  -1.467934  0.164608  0.000000
  0.000000  0.000000  0.000000


  22.700743  -1.748524  0.000000
  -1.748524  -0.428023  0.000000
  0.000000  0.000000  0.000000


  20.273780  -6.022458  0.000000
  -6.022458  1.883043  0.000000
  0.000000  0.000000  0.000000


  19.999437  -6.415682  0.000000
  -6.415682  1.449857  0.000000
  0.000000  0.000000  0.000000


  0.195737  -0.915479  0.000000
  -0.915479  4.574221  0.000000
  0.000000  0.000000  0.000000


  -0.024410  -0.744137  0.000000
  -0.744137  4.592454  0.000000
  0.000000  0.000000  0.000000


  4.883316  -6.541056  0.000000
  -6.541056  8.879465  0.000000
  0.000000  0.000000  0.000000


  4.545922  -6.646586  0.000000
  -6.646586  8.908987  0.000000
  0.000000  0.000000  0.000000


  2.917959  -4.984567  0.000000
  -4.984567  8.672567  0.000000
  0.000000  0.000000  0.000000


  2.437822  -4.948318  0.000000
  -4.948318  8.772469  0.000000
  0.000000  0.000000  0.000000


  7.026004  -7.676667  0.000000
  -7.676667  8.524504  0.000000
  0.000000  0.000000  0.000000


  6.841625  -7.905059  0.000000
  -7.905059  8.242834  0.000000
  0.000000  0.000000  0.000000


  21.520697  -4.564661  0.000000
  -4.564661  1.048575  0.000000
  0.000000  0.000000  0.000000


  21.381761  -4.857283  0.000000
  -4.857283  0.496666  0.000000
  0.000000  0.000000  0.000000


  3.994349  -5.910372  0.000000
  -5.910372  8.882070  0.000000
  0.000000  0.000000  0.000000


  3.522620  -5.928124  0.000000
  -5.928124  8.968184  0.000000
  0.000000  0.000000  0.000000


  13.746127  -8.771060  0.000000
  -8.771060  5.686970  0.000000
  0.000000  0.000000  0.000000


  13.558479  -8.987079  0.000000
  -8.987079  5.470289  0.000000
  0.000000  0.000000  0.000000


  18.158611  -7.577566  0.000000
  -7.577566  3.256693  0.000000
  0.000000  0.000000  0.000000


  18.166040  -7.631627  0.000000
  -7.631627  2.677110  0.000000
  0.000000  0.000000  0.000000


  0.396687  -1.444260  0.000000
  -1.444260  5.611591  0.000000
  0.000000  0.000000  0.000000


  0.152949  -1.396618  0.000000
  -1.396618  5.688251  0.000000
  0.000000  0.000000  0.000000


  0.102798  -0.536512  0.000000
  -0.536512  3.709521  0.000000
  0.000000  0.000000  0.000000


  0.022157  -0.521817  0.000000
  -0.521817  3.723912  0.000000
  0.000000  0.000000  0.000000


  11.526717  -8.805037  0.000000
  -8.805037  6.892582  0.000000
  0.000000  0.000000  0.000000


  11.603213  -8.881153  0.000000
  -8.881153  6.373426  0.000000
  0.000000  0.000000  0.000000


  22.702266  -1.501192  0.000000
  -1.501192  0.218698  0.000000
  0.000000  0.000000  0.000000


  22.649502  -1.132801  0.000000
  -1.132801  -0.321094  0.000000
  0.000000  0.000000  0.000000


  0.077224  -0.454360  0.000000
  -0.454360  3.337610  0.000000
  0.000000  0.000000  0.000000


  -0.050710  -0.259821  0.000000
  -0.259821  3.341409  0.000000
  0.000000  0.000000  0.000000


  20.660894  -5.337670  0.000000
  -5.337670  1.474220  0.000000
  0.000000  0.000000  0.000000


  20.757849  -4.968944  0.000000
  -4.968944  0.813522  0.000000
  0.000000  0.000000  0.000000


  12.041809  -8.773015  0.000000
  -8.773015  6.556975  0.000000
  0.000000  0.000000  0.000000


  11.311557  -8.986613  0.000000
  -8.986613  6.781933  0.000000
  0.000000  0.000000  0.000000


  17.159288  -7.951698  0.000000
  -7.951698  3.815918  0.000000
  0.000000  0.000000  0.000000


  17.248887  -7.917428  0.000000
  -7.917428  3.056585  0.000000
  0.000000  0.000000  0.000000


  6.700790  -7.515959  0.000000
  -7.515959  8.548976  0.000000
  0.000000  0.000000  0.000000


  6.099597  -7.636391  0.000000
  -7.636391  8.669000  0.000000
  0.000000  0.000000  0.000000


  1.189395  -2.892621  0.000000
  -2.892621  7.350613  0.000000
  0.000000  0.000000  0.000000


  0.825433  -2.701337  0.000000
  -2.701337  7.466724  0.000000
  0.000000  0.000000  0.000000


  16.685423  -8.017646  0.000000
  -8.017646  4.019528  0.000000
  0.000000  0.000000  0.000000


  15.744692  -7.564493  0.000000
  -7.564493  3.817947  0.000000
  0.000000  0.000000  0.000000


  5.847096  -7.108744  0.000000
  -7.108744  8.856164  0.000000
  0.000000  0.000000  0.000000


  5.821365  -7.265130  0.000000
  -7.265130  8.544566  0.000000
  0.000000  0.000000  0.000000


  22.472226  -2.854723  0.000000
  -2.854723  0.423828  0.000000
  0.000000  0.000000  0.000000


  22.463229  -2.937950  0.000000
  -2.937950  -0.338089  0.000000
  0.000000  0.000000  0.000000


  13.997448  -8.692016  0.000000
  -8.692016  5.551280  0.000000
  0.000000  0.000000  0.000000


  12.999221  -8.145776  0.000000
  -8.145776  5.081126  0.000000
  0.000000  0.000000  0.000000


  22.449916  -2.285389  0.000000
  -2.285389  0.357111  0.000000
  0.000000  0.000000  0.000000


  22.223855  -2.790979  0.000000
  -2.790979  -0.108329  0.000000
  0.000000  0.000000  0.000000


  3.964085  -5.870641  0.000000
  -5.870641  8.945025  0.000000
  0.000000  0.000000  0.000000


  3.903177  -6.023086  0.000000
  -6.023086  8.720844  0.000000
  0.000000  0.000000  0.000000


  15.413658  -8.471332  0.000000
  -8.471332  4.821857  0.000000
  0.000000  0.000000  0.000000


  15.607053  -8.372707  0.000000
  -8.372707  4.175649  0.000000
  0.000000  0.000000  0.000000


  0.212297  -0.916083  0.000000
  -0.916083  4.623658  0.000000
  0.000000  0.000000  0.000000


  0.071481  -0.899378  0.000000
  -0.899378  4.655206  0.000000
  0.000000  0.000000  0.000000


  12.889947  -8.905455  0.000000
  -8.905455  6.221949  0.000000
  0.000000  0.000000  0.000000


  12.610254  -9.250162  0.000000
  -9.250162  5.823672  0.000000
  0.000000  0.000000  0.000000


  0.032121  -0.043018  0.000000
  -0.043018  1.280903  0.000000
  0.000000  0.000000  0.000000


  -0.029324  0.140915  0.000000
  0.140915  1.255497  0.000000
  0.000000  0.000000  0.000000


  7.251003  -7.674438  0.000000
  -7.674438  8.355608  0.000000
  0.000000  0.000000  0.000000


  6.796577  -7.208425  0.000000
  -7.208425  7.806068  0.000000
  0.000000  0.000000  0.000000


  1.477118  -3.302214  0.000000
  -3.302214  7.687541  0.000000
  0.000000  0.000000  0.000000


  1.063661  -3.098847  0.000000
  -3.098847  7.832672  0.000000
  0.000000  0.000000  0.000000


  14.881783  -8.610032  0.000000
  -8.610032  5.088444  0.000000
  0.000000  0.000000  0.000000


  14.414469  -8.956259  0.000000
  -8.956259  4.946732  0.000000
  0.000000  0.000000  0.000000


  0.635989  -1.937812  0.000000
  -1.937812  6.275619  0.000000
  0.000000  0.000000  0.000000


  0.507159  -1.740014  0.000000
  -1.740014  5.934773  0.000000
  0.000000  0.000000  0.000000


  19.984819  -6.188881  0.000000
  -6.188881  2.059694  0.000000
  0.000000  0.000000  0.000000


  20.135433  -5.869739  0.000000
  -5.869739  1.363122  0.000000
  0.000000  0.000000  0.000000


  0.030401  -0.233972  0.000000
  -0.233972  2.595557  0.000000
  0.000000  0.000000  0.000000


  -0.052334  -0.139013  0.000000
  -0.139013  2.617717  0.000000
  0.000000  0.000000  0.000000


  9.141245  -8.404283  0.000000
  -8.404283  7.919505  0.000000
  0.000000  0.000000  0.000000


  9.263539  -8.472689  0.000000
  -8.472689  7.363410  0.000000
  0.000000  0.000000  0.000000


  23.091308  -0.823599  0.000000
  -0.823599  0.140727  0.000000
  0.000000  0.000000  0.000000


  23.042579  -0.579265  0.000000
  -0.579265  -0.390016  0.000000
  0.000000  0.000000  0.000000


  18.910600  -7.107243  0.000000
  -7.107243  2.762687  0.000000
  0.000000  0.000000  0.000000


  18.548311  -7.526997  0.000000
  -7.526997  2.401834  0.000000
  0.000000  0.000000  0.000000


  7.887063  -7.991705  0.000000
  -7.991705  8.301714  0.000000
  0.000000  0.000000  0.000000


  8.006687  -8.110776  0.000000
  -8.110776  7.831452  0.000000
  0.000000  0.000000  0.000000


  0.849183  -2.345898  0.000000
  -2.345898  6.886200  0.000000
  0.000000  0.000000  0.000000


  0.704154  -2.413580  0.000000
  -2.413580  6.855115  0.000000
  0.000000  0.000000  0.000000


  18.129267  -7.465566  0.000000
  -7.465566  3.214636  0.000000
  0.000000  0.000000  0.000000


  17.635289  -7.892164  0.000000
  -7.892164  3.165772  0.000000
  0.000000  0.000000  0.000000


  5.161617  -6.677928  0.000000
  -6.677928  8.869657  0.000000
  0.000000  0.000000  0.000000


  5.132763  -6.894984  0.000000
  -6.894984  8.483593  0.000000
  0.000000  0.000000  0.000000


  21.983004  -3.689874  0.000000
  -3.689874  0.751324  0.000000
  0.000000  0.000000  0.000000


  21.999974  -3.353962  0.000000
  -3.353962  0.156399  0.000000
  0.000000  0.000000  0.000000


  0.398690  -1.419791  0.000000
  -1.419791  5.503482  0.000000
  0.000000  0.000000  0.000000


  0.170555  -1.191340  0.000000
  -1.191340  5.532929  0.000000
  0.000000  0.000000  0.000000


  10.496230  -8.625740  0.000000
  -8.625740  7.188289  0.000000
  0.000000  0.000000  0.000000


  9.749006  -8.095958  0.000000
  -8.095958  6.905557  0.000000
  0.000000  0.000000  0.000000


  21.260719  -4.777001  0.000000
  -4.777001  1.215246  0.000000
  0.000000  0.000000  0.000000


  21.360657  -4.367632  0.000000
  -4.367632  0.580012  0.000000
  0.000000  0.000000  0.000000


  2.744537  -4.803310  0.000000
  -4.803310  8.677650  0.000000
  0.000000  0.000000  0.000000


  2.644984  -4.959313  0.000000
  -4.959313  8.495386  0.000000
  0.000000  0.000000  0.000000


  1.900639  -3.860075  0.000000
  -3.860075  8.178205  0.000000
  0.000000  0.000000  0.000000


  1.810873  -4.009718  0.000000
  -4.009718  8.026385  0.000000
  0.000000  0.000000  0.000000


  19.033774  -6.850559  0.000000
  -6.850559  2.619871  0.000000
  0.000000  0.000000  0.000000


  19.217453  -6.548845  0.000000
  -6.548845  1.975695  0.000000
  0.000000  0.000000  0.000000


  0.775121  -2.244996  0.000000
  -2.244996  6.722532  0.000000
  0.000000  0.000000  0.000000


  0.464385  -2.174181  0.000000
  -2.174181  6.768608  0.000000
  0.000000  0.000000  0.000000


  15.941131  -8.316075  0.000000
  -8.316075  4.482502  0.000000
  0.000000  0.000000  0.000000


  14.798226  -7.795828  0.000000
  -7.795828  4.084372  0.000000
  0.000000  0.000000  0.000000


  0.231150  -1.007746  0.000000
  -1.007746  4.811973  0.000000
  0.000000  0.000000  0.000000


  0.083249  -0.971056  0.000000
  -0.971056  4.852171  0.000000
  0.000000  0.000000  0.000000


  3.236827  -5.284529  0.000000
  -5.284529  8.805915  0.000000
  0.000000  0.000000  0.000000


  2.996560  -5.442264  0.000000
  -5.442264  8.711149  0.000000
  0.000000  0.000000  0.000000


  0.024194  -0.023980  0.000000
  -0.023980  1.192745  0.000000
  0.000000  0.000000  0.000000


  -0.075348  0.117219  0.000000
  0.117219  1.201296  0.000000
  0.000000  0.000000  0.000000


  0.511311  -1.693658  0.000000
  -1.693658  6.022692  0.000000
  0.000000  0.000000  0.000000


  0.339710  -1.701442  0.000000
  -1.701442  6.054113  0.000000
  0.000000  0.000000  0.000000


  22.344846  -2.502081  0.000000
  -2.502081  0.364737  0.000000
  0.000000  0.000000  0.000000


  22.392986  -2.320814  0.000000
  -2.320814  -0.264504  0.000000
  0.000000  0.000000  0.000000


  19.758158  -6.536975  0.000000
  -6.536975  2.238035  0.000000
  0.000000  0.000000  0.000000


  19.674673  -6.755053  0.000000
  -6.755053  1.669646  0.000000
  0.000000  0.000000  0.000000


  6.277024  -7.284944  0.000000
  -7.284944  8.661306  0.000000
  0.000000  0.000000  0.000000


  5.816769  -6.884292  0.000000
  -6.884292  8.085050  0.000000
  0.000000  0.000000  0.000000


  22.223221  -2.796502  0.000000
  -2.796502  0.490911  0.000000
  0.000000  0.000000  0.000000


  21.952074  -3.345431  0.000000
  -3.345431  0.211939  0.000000
  0.000000  0.000000  0.000000


  18.877923  -7.086427  0.000000
  -7.086427  2.787135  0.000000
  0.000000  0.000000  0.000000


  18.957446  -6.977012  0.000000
  -6.977012  2.042787  0.000000
  0.000000  0.000000  0.000000


  0.093731  -0.525774  0.000000
  -0.525774  3.552322  0.000000
  0.000000  0.000000  0.000000


  0.041547  -0.378149  0.000000
  -0.378149  3.335423  0.000000
  0.000000  0.000000  0.000000


  21.209960  -5.182622  0.000000
  -5.182622  1.330849  0.000000
  0.000000  0.000000  0.000000


  21.138005  -5.412357  0.000000
  -5.412357  0.610125  0.000000
  0.000000  0.000000  0.000000


  0.134723  -0.661293  0.000000
  -0.661293  3.936179  0.000000
  0.000000  0.000000  0.000000


  0.058286  -0.535729  0.000000
  -0.535729  3.773934  0.000000
  0.000000  0.000000  0.000000


  11.600732  -8.824571  0.000000
  -8.824571  6.813405  0.000000
  0.000000  0.000000  0.000000


  11.110546  -9.084001  0.000000
  -9.084001  6.763413  0.000000
  0.000000  0.000000  0.000000


  22.046628  -3.954026  0.000000
  -3.954026  0.791925  0.000000
  0.000000  0.000000  0.000000


  22.040081  -4.030838  0.000000
  -4.030838  0.065628  0.000000
  0.000000  0.000000  0.000000


  1.086286  -2.781010  0.000000
  -2.781010  7.298419  0.000000
  0.000000  0.000000  0.000000


  0.814890  -2.728161  0.000000
  -2.728161  7.381264  0.000000
  0.000000  0.000000  0.000000


  0.757415  -2.159672  0.000000
  -2.159672  6.557732  0.000000
  0.000000  0.000000  0.000000


  0.469507  -1.947613  0.000000
  -1.947613  6.665405  0.000000
  0.000000  0.000000  0.000000


  12.007991  -8.806331  0.000000
  -8.806331  6.635704  0.000000
  0.000000  0.000000  0.000000


  12.192744  -8.818279  0.000000
  -8.818279  6.041789  0.000000
  0.000000  0.000000  0.000000


  17.589252  -7.853375  0.000000
  -7.853375  3.576847  0.000000
  0.000000  0.000000  0.000000


  17.458000  -8.121176  0.000000
  -8.121176  3.030524  0.000000
  0.000000  0.000000  0.000000


  6.763151  -7.546510  0.000000
  -7.546510  8.564226  0.000000
  0.000000  0.000000  0.000000


  6.601376  -7.746802  0.000000
  -7.746802  8.335293  0.000000
  0.000000  0.000000  0.000000


  21.420845  -4.594480  0.000000
  -4.594480  1.080105  0.000000
  0.000000  0.000000  0.000000


  21.412868  -4.188964  0.000000
  -4.188964  0.411596  0.000000
  0.000000  0.000000  0.000000


  2.009359  -4.022287  0.000000
  -4.022287  8.240953  0.000000
  0.000000  0.000000  0.000000


  1.797470  -4.148827  0.000000
  -4.148827  8.165778  0.000000
  0.000000  0.000000  0.000000


  4.735989  -6.447358  0.000000
  -6.447358  8.906434  0.000000
  0.000000  0.000000  0.000000


  4.232232  -6.496935  0.000000
  -6.496935  8.989497  0.000000
  0.000000  0.000000  0.000000


  2.753242  -4.832289  0.000000
  -4.832289  8.637505  0.000000
  0.000000  0.000000  0.000000


  2.298686  -4.812090  0.000000
  -4.812090  8.715925  0.000000
  0.000000  0.000000  0.000000


  13.588650  -8.842846  0.000000
  -8.842846  5.839711  0.000000
  0.000000  0.000000  0.000000


  13.118261  -9.174569  0.000000
  -9.174569  5.684609  0.000000
  0.000000  0.000000  0.000000


  0.348961  -1.323154  0.000000
  -1.323154  5.407608  0.000000
  0.000000  0.000000  0.000000


  0.154105  -1.289471  0.000000
  -1.289471  5.472952  0.000000
  0.000000  0.000000  0.000000


  22.836572  -1.048122  0.000000
  -1.048122  0.175033  0.000000
  0.000000  0.000000  0.000000


  22.781408  -0.605518  0.000000
  -0.605518  -0.278729  0.000000
  0.000000  0.000000  0.000000


  18.330488  -7.343520  0.000000
  -7.343520  3.079469  0.000000
  0.000000  0.000000  0.000000


  17.047462  -6.891320  0.000000
  -6.891320  2.867811  0.000000
  0.000000  0.000000  0.000000


  5.454767  -6.912028  0.000000
  -6.912028  8.854350  0.000000
  0.000000  0.000000  0.000000


  5.072672  -7.121711  0.000000
  -7.121711  8.753040  0.000000
  0.000000  0.000000  0.000000


  22.754674  -1.665172  0.000000
  -1.665172  0.176671  0.000000
  0.000000  0.000000  0.000000


  22.755919  -1.697802  0.000000
  -1.697802  -0.565929  0.000000
  0.000000  0.000000  0.000000


  20.220079  -6.012221  0.000000
  -6.012221  1.913676  0.000000
  0.000000  0.000000  0.000000


  20.293155  -5.819758  0.000000
  -5.819758  1.172889  0.000000
  0.000000  0.000000  0.000000


  0.042643  -0.285133  0.000000
  -0.285133  2.793394  0.000000
  0.000000  0.000000  0.000000


  -0.065400  -0.194422  0.000000
  -0.194422  2.853944  0.000000
  0.000000  0.000000  0.000000


  1.575345  -3.424298  0.000000
  -3.424298  7.794219  0.000000
  0.000000  0.000000  0.000000


  1.344503  -3.120482  0.000000
  -3.120482  7.372918  0.000000
  0.000000  0.000000  0.000000


  14.548080  -8.649148  0.000000
  -8.649148  5.295288  0.000000
  0.000000  0.000000  0.000000


  14.657310  -8.650672  0.000000
  -8.650672  4.668263  0.000000
  0.000000  0.000000  0.000000


  0.016959  -0.074986  0.000000
  -0.074986  1.751166  0.000000
  0.000000  0.000000  0.000000


  -0.059808  0.008667  0.000000
  0.008667  1.792334  0.000000
  0.000000  0.000000  0.000000


  9.410025  -8.470390  0.000000
  -8.470390  7.807303  0.000000
  0.000000  0.000000  0.000000


  9.449748  -8.594563  0.000000
  -8.594563  7.352399  0.000000
  0.000000  0.000000  0.000000


  7.923431  -8.074215  0.000000
  -8.074215  8.352189  0.000000
  0.000000  0.000000  0.000000


  7.617703  -8.345100  0.000000
  -8.345100  8.148264  0.000000
  0.000000  0.000000  0.000000


  23.390162  -0.633229  0.000000
  -0.633229  0.129804  0.000000
  0.000000  0.000000  0.000000


  23.373415  -0.536867  0.000000
  -0.536867  -0.358645  0.000000
  0.000000  0.000000  0.000000


  22.328466  -2.606448  0.000000
  -2.606448  0.388708  0.000000
  0.000000  0.000000  0.000000


  22.262427  -2.922317  0.000000
  -2.922317  -0.157170  0.000000
  0.000000  0.000000  0.000000


  4.104264  -5.992061  0.000000
  -5.992061  8.883914  0.000000
  0.000000  0.000000  0.000000


  3.802285  -6.063938  0.000000
  -6.063938  8.926542  0.000000
  0.000000  0.000000  0.000000


  18.395032  -7.448705  0.000000
  -7.448705  3.104521  0.000000
  0.000000  0.000000  0.000000


  18.386242  -7.536507  0.000000
  -7.536507  2.495560  0.000000
  0.000000  0.000000  0.000000


  22.318646  -3.094052  0.000000
  -3.094052  0.511863  0.000000
  0.000000  0.000000  0.000000


  22.313337  -2.954113  0.000000
  -2.954113  -0.166905  0.000000
  0.000000  0.000000  0.000000


  13.526667  -8.811869  0.000000
  -8.811869  5.897764  0.000000
  0.000000  0.000000  0.000000


  13.617831  -8.856558  0.000000
  -8.856558  5.291375  0.000000
  0.000000  0.000000  0.000000


  0.044859  0.026219  0.000000
  0.026219  1.072744  0.000000
  0.000000  0.000000  0.000000


  -0.092960  0.055571  0.000000
  0.055571  1.085595  0.000000
  0.000000  0.000000  0.000000


  7.001620  -7.626725  0.000000
  -7.626725  8.471632  0.000000
  0.000000  0.000000  0.000000


  6.362909  -7.756083  0.000000
  -7.756083  8.615658  0.000000
  0.000000  0.000000  0.000000


  1.359521  -3.182459  0.000000
  -3.182459  7.696330  0.000000
  0.000000  0.000000  0.000000


  1.141628  -3.251014  0.000000
  -3.251014  7.696472  0.000000
  0.000000  0.000000  0.000000


  0.226591  -0.981862  0.000000
  -0.981862  4.716786  0.000000
  0.000000  0.000000  0.000000


  0.022291  -0.825959  0.000000
  -0.825959  4.795252  0.000000
  0.000000  0.000000  0.000000


  4.704589  -6.412259  0.000000
  -6.412259  8.968320  0.000000
  0.000000  0.000000  0.000000


  4.650080  -6.570442  0.000000
  -6.570442  8.712459  0.000000
  0.000000  0.000000  0.000000


  1.028131  -2.631441  0.000000
  -2.631441  7.219213  0.000000
  0.000000  0.000000  0.000000


  0.974525  -2.735162  0.000000
  -2.735162  7.116509  0.000000
  0.000000  0.000000  0.000000


  16.979689  -8.143834  0.000000
  -8.143834  3.972738  0.000000
  0.000000  0.000000  0.000000


  16.750779  -8.497604  0.000000
  -8.497604  3.461378  0.000000
  0.000000  0.000000  0.000000


  9.640790  -8.522132  0.000000
  -8.522132  7.632162  0.000000
  0.000000  0.000000  0.000000


  9.344026  -8.730962  0.000000
  -8.730962  7.539024  0.000000
  0.000000  0.000000  0.000000


  17.343583  -7.801009  0.000000
  -7.801009  3.651853  0.000000
  0.000000  0.000000  0.000000


  16.778761  -8.294541  0.000000
  -8.294541  3.600955  0.000000
  0.000000  0.000000  0.000000


  0.018000  -0.107260  0.000000
  -0.107260  1.866310  0.000000
  0.000000  0.000000  0.000000


  -0.036340  0.048976  0.000000
  0.048976  1.827990  0.000000
  0.000000  0.000000  0.000000


  11.244077  -8.767609  0.000000
  -8.767609  7.004723  0.000000
  0.000000  0.000000  0.000000


  11.318585  -8.853927  0.000000
  -8.853927  6.481956  0.000000
  0.000000  0.000000  0.000000


  20.954591  -5.211327  0.000000
  -5.211327  1.395068  0.000000
  0.000000  0.000000  0.000000


  20.398138  -5.808178  0.000000
  -5.808178  1.176161  0.000000
  0.000000  0.000000  0.000000


  22.469308  -1.715595  0.000000
  -1.715595  0.273060  0.000000
  0.000000  0.000000  0.000000


  22.414186  -1.226461  0.000000
  -1.226461  -0.118699  0.000000
  0.000000  0.000000  0.000000


  1.563259  -3.461457  0.000000
  -3.461457  7.916635  0.000000
  0.000000  0.000000  0.000000


  1.263831  -3.541335  0.000000
  -3.541335  7.931650  0.000000
  0.000000  0.000000  0.000000


  0.349958  -1.308674  0.000000
  -1.308674  5.317843  0.000000
  0.000000  0.000000  0.000000


  0.111714  -1.099346  0.000000
  -1.099346  5.365047  0.000000
  0.000000  0.000000  0.000000


  10.556692  -8.716215  0.000000
  -8.716215  7.277587  0.000000
  0.000000  0.000000  0.000000


  10.254360  -9.051030  0.000000
  -9.051030  6.927213  0.000000
  0.000000  0.000000  0.000000


  12.257269  -8.830623  0.000000
  -8.830623  6.452233  0.000000
  0.000000  0.000000  0.000000


  12.019001  -9.057896  0.000000
  -9.057896  6.280355  0.000000
  0.000000  0.000000  0.000000


  5.315090  -6.767789  0.000000
  -6.767789  8.827500  0.000000
  0.000000  0.000000  0.000000


  4.644910  -6.806805  0.000000
  -6.806805  9.036461  0.000000
  0.000000  0.000000  0.000000


  21.802289  -3.867679  0.000000
  -3.867679  0.825045  0.000000
  0.000000  0.000000  0.000000


  21.862083  -3.437928  0.000000
  -3.437928  0.248855  0.000000
  0.000000  0.000000  0.000000


  2.599700  -4.655952  0.000000
  -4.655952  8.638942  0.000000
  0.000000  0.000000  0.000000


  2.558136  -4.810741  0.000000
  -4.810741  8.406242  0.000000
  0.000000  0.000000  0.000000


  19.112000  -6.909262  0.000000
  -6.909262  2.632938  0.000000
  0.000000  0.000000  0.000000


  18.514199  -7.434155  0.000000
  -7.434155  2.506881  0.000000
  0.000000  0.000000  0.000000


  8.595641  -8.285884  0.000000
  -8.285884  8.110348  0.000000
  0.000000  0.000000  0.000000


  8.459375  -8.484700  0.000000
  -8.484700  7.820361  0.000000
  0.000000  0.000000  0.000000


  1.971299  -3.966135  0.000000
  -3.966135  8.196727  0.000000
  0.000000  0.000000  0.000000


  1.542254  -3.932978  0.000000
  -3.932978  8.333856  0.000000
  0.000000  0.000000  0.000000


  0.136231  -0.717137  0.000000
  -0.717137  4.094167  0.000000
  0.000000  0.000000  0.000000


  -0.065815  -0.588989  0.000000
  -0.588989  4.113973  0.000000
  0.000000  0.000000  0.000000


  7.886511  -7.965967  0.000000
  -7.965967  8.235357  0.000000
  0.000000  0.000000  0.000000


  7.150655  -8.013947  0.000000
  -8.013947  8.483563  0.000000
  0.000000  0.000000  0.000000


  0.775429  -2.207036  0.000000
  -2.207036  6.743502  0.000000
  0.000000  0.000000  0.000000


  0.681690  -2.298215  0.000000
  -2.298215  6.669352  0.000000
  0.000000  0.000000  0.000000


  15.980605  -8.418073  0.000000
  -8.418073  4.529125  0.000000
  0.000000  0.000000  0.000000


  15.946894  -8.561382  0.000000
  -8.561382  3.980204  0.000000
  0.000000  0.000000  0.000000


  23.288620  -0.561454  0.000000
  -0.561454  0.113531  0.000000
  0.000000  0.000000  0.000000


  23.117509  -1.091791  0.000000
  -1.091791  -0.311280  0.000000
  0.000000  0.000000  0.000000


  3.424856  -5.391637  0.000000
  -5.391637  8.734234  0.000000
  0.000000  0.000000  0.000000


  3.123919  -5.008842  0.000000
  -5.008842  8.210887  0.000000
  0.000000  0.000000  0.000000


  14.626983  -8.672264  0.000000
  -8.672264  5.229756  0.000000
  0.000000  0.000000  0.000000


  14.193113  -9.012686  0.000000
  -9.012686  5.040378  0.000000
  0.000000  0.000000  0.000000


  0.039709  -0.276152  0.000000
  -0.276152  2.715910  0.000000
  0.000000  0.000000  0.000000


  -0.065512  -0.095337  0.000000
  -0.095337  2.705567  0.000000
  0.000000  0.000000  0.000000


  0.566510  -1.799055  0.000000
  -1.799055  6.104420  0.000000
  0.000000  0.000000  0.000000


  0.262573  -1.585008  0.000000
  -1.585008  6.179257  0.000000
  0.000000  0.000000  0.000000


  6.282160  -7.380595  0.000000
  -7.380595  8.798720  0.000000
  0.000000  0.000000  0.000000


  5.959328  -7.613527  0.000000
  -7.613527  8.668930  0.000000
  0.000000  0.000000  0.000000


  20.627710  -5.806814  0.000000
  -5.806814  1.705725  0.000000
  0.000000  0.000000  0.000000


  20.568074  -6.002411  0.000000
  -6.002411  1.064882  0.000000
  0.000000  0.000000  0.000000


  1.748748  -3.708147  0.000000
  -3.708147  8.043554  0.000000
  0.000000  0.000000  0.000000


  1.392831  -3.676461  0.000000
  -3.676461  8.151267  0.000000
  0.000000  0.000000  0.000000


  14.236182  -8.667808  0.000000
  -8.667808  5.438930  0.000000
  0.000000  0.000000  0.000000


  14.439484  -8.603895  0.000000
  -8.603895  4.787504  0.000000
  0.000000  0.000000  0.000000


  22.757239  -1.251211  0.000000
  -1.251211  0.134237  0.000000
  0.000000  0.000000  0.000000


  22.748318  -1.344898  0.000000
  -1.344898  -0.332554  0.000000
  0.000000  0.000000  0.000000


  19.845828  -6.416718  0.000000
  -6.416718  2.132325  0.000000
  0.000000  0.000000  0.000000


  19.783952  -6.593627  0.000000
  -6.593627  1.630084  0.000000
  0.000000  0.000000  0.000000


  16.111512  -8.210621  0.000000
  -8.210621  4.341568  0.000000
  0.000000  0.000000  0.000000


  15.219078  -7.714675  0.000000
  -7.714675  3.981969  0.000000
  0.000000  0.000000  0.000000


  8.855943  -8.354456  0.000000
  -8.354456  7.997157  0.000000
  0.000000  0.000000  0.000000


  8.685186  -8.580721  0.000000
  -8.580721  7.700128  0.000000
  0.000000  0.000000  0.000000


  4.294114  -6.092493  0.000000
  -6.092493  8.859796  0.000000
  0.000000  0.000000  0.000000


  3.875928  -5.681968  0.000000
  -5.681968  8.302866  0.000000
  0.000000  0.000000  0.000000


  0.014167  -0.049842  0.000000
  -0.049842  1.590446  0.000000
  0.000000  0.000000  0.000000


  -0.048453  0.017675  0.000000
  0.017675  1.598090  0.000000
  0.000000  0.000000  0.000000


  8.359566  -8.178327  0.000000
  -8.178327  8.107417  0.000000
  0.000000  0.000000  0.000000


  8.074231  -8.351938  0.000000
  -8.351938  8.050375  0.000000
  0.000000  0.000000  0.000000


  3.626285  -5.624752  0.000000
  -5.624752  8.863009  0.000000
  0.000000  0.000000  0.000000


  3.129802  -5.642294  0.000000
  -5.642294  8.942791  0.000000
  0.000000  0.000000  0.000000


  18.581132  -7.259007  0.000000
  -7.259007  2.987500  0.000000
  0.000000  0.000000  0.000000


  18.707244  -6.976688  0.000000
  -6.976688  2.273931  0.000000
  0.000000  0.000000  0.000000


  5.890458  -7.141967  0.000000
  -7.141967  8.785113  0.000000
  0.000000  0.000000  0.000000


  5.373940  -7.227680  0.000000
  -7.227680  8.861219  0.000000
  0.000000  0.000000  0.000000


  13.339543  -8.858759  0.000000
  -8.858759  5.953594  0.000000
  0.000000  0.000000  0.000000


  13.096424  -9.173846  0.000000
  -9.173846  5.548315  0.000000
  0.000000  0.000000  0.000000


  0.449482  -1.577201  0.000000
  -1.577201  5.794828  0.000000
  0.000000  0.000000  0.000000


  0.163277  -1.423817  0.000000
  -1.423817  5.835835  0.000000
  0.000000  0.000000  0.000000


  7.245498  -7.809859  0.000000
  -7.809859  8.512933  0.000000
  0.000000  0.000000  0.000000


  6.882896  -8.111456  0.000000
  -8.111456  8.395301  0.000000
  0.000000  0.000000  0.000000


  21.187119  -4.989320  0.000000
  -4.989320  1.244253  0.000000
  0.000000  0.000000  0.000000


  21.151300  -5.123642  0.000000
  -5.123642  0.749076  0.000000
  0.000000  0.000000  0.000000


  16.836560  -8.044701  0.000000
  -8.044701  4.001509  0.000000
  0.000000  0.000000  0.000000


  17.000539  -7.902091  0.000000
  -7.902091  3.330859  0.000000
  0.000000  0.000000  0.000000


  4.501345  -6.308966  0.000000
  -6.308966  8.983722  0.000000
  0.000000  0.000000  0.000000


  4.142105  -6.498150  0.000000
  -6.498150  8.933739  0.000000
  0.000000  0.000000  0.000000


  2.619143  -4.713877  0.000000
  -4.713877  8.625860  0.000000
  0.000000  0.000000  0.000000


  2.191412  -4.760591  0.000000
  -4.760591  8.658782  0.000000
  0.000000  0.000000  0.000000


  0.016425  -0.151178  0.000000
  -0.151178  2.137409  0.000000
  0.000000  0.000000  0.000000


  -0.064822  0.000395  0.000000
  0.000395  2.116404  0.000000
  0.000000  0.000000  0.000000


  6.450500  -7.442457  0.000000
  -7.442457  8.710597  0.000000
  0.000000  0.000000  0.000000


  6.486723  -7.568639  0.000000
  -7.568639  8.277407  0.000000
  0.000000  0.000000  0.000000


  22.234867  -3.023067  0.000000
  -3.023067  0.534586  0.000000
  0.000000  0.000000  0.000000


  21.985852  -3.506112  0.000000
  -3.506112  0.167975  0.000000
  0.000000  0.000000  0.000000


  0.635276  -1.964504  0.000000
  -1.964504  6.384995  0.000000
  0.000000  0.000000  0.000000


  0.374815  -1.948284  0.000000
  -1.948284  6.450678  0.000000
  0.000000  0.000000  0.000000


  22.711813  -2.014004  0.000000
  -2.014004  0.255078  0.000000
  0.000000  0.000000  0.000000


  22.677425  -2.178428  0.000000
  -2.178428  -0.530342  0.000000
  0.000000  0.000000  0.000000


  0.923812  -2.497777  0.000000
  -2.497777  6.974702  0.000000
  0.000000  0.000000  0.000000


  0.563567  -2.368594  0.000000
  -2.368594  7.041620  0.000000
  0.000000  0.000000  0.000000


  15.146966  -8.529135  0.000000
  -8.529135  4.897963  0.000000
  0.000000  0.000000  0.000000


  15.121690  -8.692887  0.000000
  -8.692887  4.396711  0.000000
  0.000000  0.000000  0.000000


  10.539999  -8.619866  0.000000
  -8.619866  7.195661  0.000000
  0.000000  0.000000  0.000000


  10.680447  -8.663127  0.000000
  -8.663127  6.479523  0.000000
  0.000000  0.000000  0.000000


  3.082953  -5.140864  0.000000
  -5.140864  8.735532  0.000000
  0.000000  0.000000  0.000000


  2.863683  -5.285658  0.000000
  -5.285658  8.640773  0.000000
  0.000000  0.000000  0.000000


  0.032802  -0.015636  0.000000
  -0.015636  1.017279  0.000000
  0.000000  0.000000  0.000000


  -0.151031  0.242533  0.000000
  0.242533  0.954052  0.000000
  0.000000  0.000000  0.000000


  9.868341  -8.499581  0.000000
  -8.499581  7.507433  0.000000
  0.000000  0.000000  0.000000


  9.295362  -8.062167  0.000000
  -8.062167  6.935367  0.000000
  0.000000  0.000000  0.000000


  12.734880  -8.742251  0.000000
  -8.742251  6.172392  0.000000
  0.000000  0.000000  0.000000


  12.062786  -9.020739  0.000000
  -9.020739  6.374310  0.000000
  0.000000  0.000000  0.000000


  17.895834  -7.614221  0.000000
  -7.614221  3.322613  0.000000
  0.000000  0.000000  0.000000


  17.782676  -7.816532  0.000000
  -7.816532  2.996494  0.000000
  0.000000  0.000000  0.000000


  21.842891  -4.157170  0.000000
  -4.157170  0.874512  0.000000
  0.000000  0.000000  0.000000


  21.848442  -4.061495  0.000000
  -4.061495  0.140108  0.000000
  0.000000  0.000000  0.000000


  1.266732  -3.046677  0.000000
  -3.046677  7.579135  0.000000
  0.000000  0.000000  0.000000


  1.039442  -3.095349  0.000000
  -3.095349  7.604544  0.000000
  0.000000  0.000000  0.000000


  19.375438  -6.743981  0.000000
  -6.743981  2.434903  0.000000
  0.000000  0.000000  0.000000


  19.114461  -7.112788  0.000000
  -7.112788  1.997035  0.000000
  0.000000  0.000000  0.000000


  0.170445  -0.835938  0.000000
  -0.835938  4.370306  0.000000
  0.000000  0.000000  0.000000


  -0.028327  -0.740088  0.000000
  -0.740088  4.408500  0.000000
  0.000000  0.000000  0.000000


  0.055073  -0.350150  0.000000
  -0.350150  3.011379  0.000000
  0.000000  0.000000  0.000000


  -0.073776  -0.240964  0.000000
  -0.240964  3.073261  0.000000
  0.000000  0.000000  0.000000


  11.316009  -8.794604  0.000000
  -8.794604  6.928019  0.000000
  0.000000  0.000000  0.000000


  10.818198  -9.058590  0.000000
  -9.058590  6.871041  0.000000
  0.000000  0.000000  0.000000


  8.845336  -8.273311  0.000000
  -8.273311  7.908424  0.000000
  0.000000  0.000000  0.000000


  8.182627  -8.416836  0.000000
  -8.416836  8.102621  0.000000
  0.000000  0.000000  0.000000


  24.029162  -0.234667  0.000000
  -0.234667  0.249082  0.000000
  0.000000  0.000000  0.000000


  3.238958  -5.241989  0.000000
  -5.241989  8.716475  0.000000
  0.000000  0.000000  0.000000


  2.698867  -5.159966  0.000000
  -5.159966  8.883518  0.000000
  0.000000  0.000000  0.000000


  8.159098  -8.116545  0.000000
  -8.116545  8.266261  0.000000
  0.000000  0.000000  0.000000


  8.183322  -8.254276  0.000000
  -8.254276  7.847909  0.000000
  0.000000  0.000000  0.000000


  0.942105  -2.500776  0.000000
  -2.500776  7.016810  0.000000
  0.000000  0.000000  0.000000


  0.761223  -2.576269  0.000000
  -2.576269  6.987877  0.000000
  0.000000  0.000000  0.000000


  19.493215  -6.550866  0.000000
  -6.550866  2.356495  0.000000
  0.000000  0.000000  0.000000


  19.638441  -6.224573  0.000000
  -6.224573  1.796755  0.000000
  0.000000  0.000000  0.000000


  0.024893  -0.139243  0.000000
  -0.139243  2.186979  0.000000
  0.000000  0.000000  0.000000


  -0.037292  -0.073490  0.000000
  -0.073490  2.221595  0.000000
  0.000000  0.000000  0.000000


  21.497029  -4.348810  0.000000
  -4.348810  0.967337  0.000000
  0.000000  0.000000  0.000000


  21.267831  -4.780678  0.000000
  -4.780678  0.591990  0.000000
  0.000000  0.000000  0.000000


  14.343255  -8.783466  0.000000
  -8.783466  5.475665  0.000000
  0.000000  0.000000  0.000000


  14.173484  -9.072001  0.000000
  -9.072001  5.021721  0.000000
  0.000000  0.000000  0.000000


  0.644974  -1.952817  0.000000
  -1.952817  6.406378  0.000000
  0.000000  0.000000  0.000000


  0.561677  -2.035847  0.000000
  -2.035847  6.349132  0.000000
  0.000000  0.000000  0.000000


  20.956297  -5.162514  0.000000
  -5.162514  1.426783  0.000000
  0.000000  0.000000  0.000000


  21.047623  -4.776501  0.000000
  -4.776501  0.808828  0.000000
  0.000000  0.000000  0.000000


  2.290713  -4.303690  0.000000
  -4.303690  8.352023  0.000000
  0.000000  0.000000  0.000000


  1.824927  -4.163543  0.000000
  -4.163543  8.507717  0.000000
  0.000000  0.000000  0.000000


  0.181788  -0.808369  0.000000
  -0.808369  4.401414  0.000000
  0.000000  0.000000  0.000000


  0.106890  -0.823479  0.000000
  -0.823479  4.399844  0.000000
  0.000000  0.000000  0.000000


  2.550964  -4.577489  0.000000
  -4.577489  8.478512  0.000000
  0.000000  0.000000  0.000000


  2.070060  -4.430848  0.000000
  -4.430848  8.683276  0.000000
  0.000000  0.000000  0.000000


  19.309538  -6.717018  0.000000
  -6.717018  2.461239  0.000000
  0.000000  0.000000  0.000000


  19.414777  -6.552523  0.000000
  -6.552523  1.690998  0.000000
  0.000000  0.000000  0.000000


  0.410931  -1.445574  0.000000
  -1.445574  5.649305  0.000000
  0.000000  0.000000  0.000000


  0.308860  -1.497382  0.000000
  -1.497382  5.624418  0.000000
  0.000000  0.000000  0.000000


  9.968624  -8.656287  0.000000
  -8.656287  7.604074  0.000000
  0.000000  0.000000  0.000000


  9.634973  -8.963129  0.000000
  -8.963129  7.351785  0.000000
  0.000000  0.000000  0.000000


  20.374435  -5.807743  0.000000
  -5.807743  1.789268  0.000000
  0.000000  0.000000  0.000000


  19.943001  -6.384057  0.000000
  -6.384057  1.560738  0.000000
  0.000000  0.000000  0.000000


  5.627601  -6.982855  0.000000
  -6.982855  8.873665  0.000000
  0.000000  0.000000  0.000000


  5.584553  -7.161103  0.000000
  -7.161103  8.543395  0.000000
  0.000000  0.000000  0.000000


  21.867321  -3.833564  0.000000
  -3.833564  0.814054  0.000000
  0.000000  0.000000  0.000000


  21.435148  -4.419767  0.000000
  -4.419767  0.612853  0.000000
  0.000000  0.000000  0.000000


  15.007629  -8.526580  0.000000
  -8.526580  4.946222  0.000000
  0.000000  0.000000  0.000000


  14.606471  -8.903655  0.000000
  -8.903655  4.856712  0.000000
  0.000000  0.000000  0.000000


  0.312435  -1.203435  0.000000
  -1.203435  5.123174  0.000000
  0.000000  0.000000  0.000000


  0.092016  -0.985615  0.000000
  -0.985615  5.169159  0.000000
  0.000000  0.000000  0.000000


  4.513636  -6.267450  0.000000
  -6.267450  8.940097  0.000000
  0.000000  0.000000  0.000000


  4.522419  -6.442000  0.000000
  -6.442000  8.621177  0.000000
  0.000000  0.000000  0.000000


  0.073350  0.061466  0.000000
  0.061466  0.761008  0.000000
  0.000000  0.000000  0.000000


  -0.251971  0.162650  0.000000
  0.162650  0.793587  0.000000
  0.000000  0.000000  0.000000


  7.351267  -7.788003  0.000000
  -7.788003  8.384554  0.000000
  0.000000  0.000000  0.000000


  7.310057  -7.984766  0.000000
  -7.984766  8.050468  0.000000
  0.000000  0.000000  0.000000


  22.395457  -2.018941  0.000000
  -2.018941  0.323291  0.000000
  0.000000  0.000000  0.000000


  22.179380  -2.582063  0.000000
  -2.582063  0.007458  0.000000
  0.000000  0.000000  0.000000


  3.618567  -5.598402  0.000000
  -5.598402  8.901737  0.000000
  0.000000  0.000000  0.000000


  3.526652  -5.765021  0.000000
  -5.765021  8.681519  0.000000
  0.000000  0.000000  0.000000


  0.097332  -0.541848  0.000000
  -0.541848  3.641716  0.000000
  0.000000  0.000000  0.000000


  -0.059622  -0.442131  0.000000
  -0.442131  3.709589  0.000000
  0.000000  0.000000  0.000000


  22.234297  -3.342182  0.000000
  -3.342182  0.585828  0.000000
  0.000000  0.000000  0.000000


  22.232612  -3.214202  0.000000
  -3.214202  -0.027970  0.000000
  0.000000  0.000000  0.000000


  13.149308  -8.761702  0.000000
  -8.761702  6.019347  0.000000
  0.000000  0.000000  0.000000


  13.357900  -8.695661  0.000000
  -8.695661  5.420717  0.000000
  0.000000  0.000000  0.000000


  0.051321  -0.336680  0.000000
  -0.336680  2.927534  0.000000
  0.000000  0.000000  0.000000


  -0.043364  -0.147290  0.000000
  -0.147290  2.902524  0.000000
  0.000000  0.000000  0.000000


  20.343734  -5.814993  0.000000
  -5.814993  1.822099  0.000000
  0.000000  0.000000  0.000000


  20.465649  -5.433412  0.000000
  -5.433412  1.267001  0.000000
  0.000000  0.000000  0.000000


  1.875266  -3.801050  0.000000
  -3.801050  8.024136  0.000000
  0.000000  0.000000  0.000000


  1.459787  -3.605250  0.000000
  -3.605250  8.195700  0.000000
  0.000000  0.000000  0.000000


  10.891149  -8.680824  0.000000
  -8.680824  7.108905  0.000000
  0.000000  0.000000  0.000000


  10.967171  -8.804698  0.000000
  -8.804698  6.528003  0.000000
  0.000000  0.000000  0.000000


  22.841311  -0.995890  0.000000
  -0.995890  0.174317  0.000000
  0.000000  0.000000  0.000000


  21.510137  -0.822673  0.000000
  -0.822673  -0.000362  0.000000
  0.000000  0.000000  0.000000


  1.280300  -3.029792  0.000000
  -3.029792  7.473424  0.000000
  0.000000  0.000000  0.000000


  0.908255  -2.842700  0.000000
  -2.842700  7.591256  0.000000
  0.000000  0.000000  0.000000


  17.698636  -7.740845  0.000000
  -7.740845  3.528990  0.000000
  0.000000  0.000000  0.000000


  17.807985  -7.637053  0.000000
  -7.637053  2.862032  0.000000
  0.000000  0.000000  0.000000


  16.391068  -8.336669  0.000000
  -8.336669  4.328559  0.000000
  0.000000  0.000000  0.000000


  16.116198  -8.693958  0.000000
  -8.693958  3.875149  0.000000
  0.000000  0.000000  0.000000


  0.017690  -0.080637  0.000000
  -0.080637  1.686802  0.000000
  0.000000  0.000000  0.000000


  -0.051990  0.082311  0.000000
  0.082311  1.660735  0.000000
  0.000000  0.000000  0.000000


  12.870326  -8.765816  0.000000
  -8.765816  6.143958  0.000000
  0.000000  0.000000  0.000000


  13.026300  -8.805504  0.000000
  -8.805504  5.459310  0.000000
  0.000000  0.000000  0.000000


  0.465253  -1.579130  0.000000
  -1.579130  5.839975  0.000000
  0.000000  0.000000  0.000000


  0.317984  -1.605700  0.000000
  -1.605700  5.845693  0.000000
  0.000000  0.000000  0.000000


  10.128305  -8.600078  0.000000
  -8.600078  7.418516  0.000000
  0.000000  0.000000  0.000000


  9.634018  -8.898533  0.000000
  -8.898533  7.399911  0.000000
  0.000000  0.000000  0.000000


  18.486507  -7.191879  0.000000
  -7.191879  2.943940  0.000000
  0.000000  0.000000  0.000000


  17.419928  -6.754086  0.000000
  -6.754086  2.689485  0.000000
  0.000000  0.000000  0.000000


  5.643683  -7.017390  0.000000
  -7.017390  8.838184  0.000000
  0.000000  0.000000  0.000000


  5.112701  -7.129258  0.000000
  -7.129258  8.885282  0.000000
  0.000000  0.000000  0.000000


  4.284237  -6.145644  0.000000
  -6.145644  8.962335  0.000000
  0.000000  0.000000  0.000000


  4.052468  -6.319544  0.000000
  -6.319544  8.843369  0.000000
  0.000000  0.000000  0.000000


  2.419998  -4.489053  0.000000
  -4.489053  8.519045  0.000000
  0.000000  0.000000  0.000000


  2.149648  -4.591001  0.000000
  -4.591001  8.518884  0.000000
  0.000000  0.000000  0.000000


  0.021165  -0.102410  0.000000
  -0.102410  1.999113  0.000000
  0.000000  0.000000  0.000000


  -0.030996  -0.068478  0.000000
  -0.068478  2.013697  0.000000
  0.000000  0.000000  0.000000


  21.337146  -4.731236  0.000000
  -4.731236  1.193102  0.000000
  0.000000  0.000000  0.000000


  20.046899  -4.351788  0.000000
  -4.351788  0.928349  0.000000
  0.000000  0.000000  0.000000


  2.152745  -4.190106  0.000000
  -4.190106  8.362909  0.000000
  0.000000  0.000000  0.000000


  1.889181  -4.274313  0.000000
  -4.274313  8.373369  0.000000
  0.000000  0.000000  0.000000


  0.025979  -0.020114  0.000000
  -0.020114  1.427838  0.000000
  0.000000  0.000000  0.000000


  -0.041348  -0.027105  0.000000
  -0.027105  1.428428  0.000000
  0.000000  0.000000  0.000000


  8.613537  -8.213063  0.000000
  -8.213063  8.006398  0.000000
  0.000000  0.000000  0.000000


  7.984133  -8.332927  0.000000
  -8.332927  8.198548  0.000000
  0.000000  0.000000  0.000000


  1.029773  -2.699803  0.000000
  -2.699803  7.203619  0.000000
  0.000000  0.000000  0.000000


  0.698549  -2.644671  0.000000
  -2.644671  7.227876  0.000000
  0.000000  0.000000  0.000000


  9.066792  -8.312135  0.000000
  -8.312135  7.801767  0.000000
  0.000000  0.000000  0.000000


  8.518739  -7.850727  0.000000
  -7.850727  7.307707  0.000000
  0.000000  0.000000  0.000000


  23.823472  -0.466975  0.000000
  -0.466975  0.228343  0.000000
  0.000000  0.000000  0.000000


  23.889391  -0.634336  0.000000
  -0.634336  -0.458738  0.000000
  0.000000  0.000000  0.000000


  1.502738  -3.448281  0.000000
  -3.448281  7.921150  0.000000
  0.000000  0.000000  0.000000


  1.527519  -3.540582  0.000000
  -3.540582  7.655940  0.000000
  0.000000  0.000000  0.000000


  14.263205  -8.641392  0.000000
  -8.641392  5.395333  0.000000
  0.000000  0.000000  0.000000


  13.528662  -8.954656  0.000000
  -8.954656  5.574120  0.000000
  0.000000  0.000000  0.000000


  5.058799  -6.588966  0.000000
  -6.588966  8.814245  0.000000
  0.000000  0.000000  0.000000


  4.462094  -6.540413  0.000000
  -6.540413  9.061675  0.000000
  0.000000  0.000000  0.000000


  20.038171  -6.157841  0.000000
  -6.157841  2.038045  0.000000
  0.000000  0.000000  0.000000


  18.833249  -5.711236  0.000000
  -5.711236  1.689425  0.000000
  0.000000  0.000000  0.000000


  0.031093  -0.183899  0.000000
  -0.183899  2.381792  0.000000
  0.000000  0.000000  0.000000


  -0.041571  -0.117097  0.000000
  -0.117097  2.419387  0.000000
  0.000000  0.000000  0.000000


  21.573909  -4.299453  0.000000
  -4.299453  0.950950  0.000000
  0.000000  0.000000  0.000000


  21.622394  -4.239387  0.000000
  -4.239387  0.331251  0.000000
  0.000000  0.000000  0.000000


  1.371432  -3.166047  0.000000
  -3.166047  7.600474  0.000000
  0.000000  0.000000  0.000000


  0.992141  -2.996051  0.000000
  -2.996051  7.712765  0.000000
  0.000000  0.000000  0.000000


  16.406496  -8.199938  0.000000
  -8.199938  4.188586  0.000000
  0.000000  0.000000  0.000000


  16.045902  -8.619569  0.000000
  -8.619569  3.953512  0.000000
  0.000000  0.000000  0.000000


  12.535977  -8.783832  0.000000
  -8.783832  6.309692  0.000000
  0.000000  0.000000  0.000000


  11.594657  -8.243653  0.000000
  -8.243653  5.812848  0.000000
  0.000000  0.000000  0.000000


  17.788745  -7.750532  0.000000
  -7.750532  3.458167  0.000000
  0.000000  0.000000  0.000000


  17.434845  -8.126859  0.000000
  -8.126859  3.150587  0.000000
  0.000000  0.000000  0.000000


  0.152738  -0.711178  0.000000
  -0.711178  4.124584  0.000000
  0.000000  0.000000  0.000000


  0.045346  -0.713453  0.000000
  -0.713453  4.140071  0.000000
  0.000000  0.000000  0.000000


  10.951879  -8.744498  0.000000
  -8.744498  7.071726  0.000000
  0.000000  0.000000  0.000000


  10.434448  -9.084040  0.000000
  -9.084040  6.898313  0.000000
  0.000000  0.000000  0.000000


  3.440356  -5.435751  0.000000
  -5.435751  8.849804  0.000000
  0.000000  0.000000  0.000000


  3.417940  -5.596697  0.000000
  -5.596697  8.609484  0.000000
  0.000000  0.000000  0.000000


  0.059332  -0.343534  0.000000
  -0.343534  3.085802  0.000000
  0.000000  0.000000  0.000000


  -0.011429  -0.310493  0.000000
  -0.310493  3.106285  0.000000
  0.000000  0.000000  0.000000


  20.721162  -5.362220  0.000000
  -5.362220  1.533220  0.000000
  0.000000  0.000000  0.000000


  20.323233  -5.925559  0.000000
  -5.925559  1.298431  0.000000
  0.000000  0.000000  0.000000


  2.914463  -4.963088  0.000000
  -4.963088  8.725057  0.000000
  0.000000  0.000000  0.000000


  2.790282  -5.111080  0.000000
  -5.111080  8.568373  0.000000
  0.000000  0.000000  0.000000


  0.014045  0.102348  0.000000
  0.102348  0.620766  0.000000
  0.000000  0.000000  0.000000


  -0.445744  0.601946  0.000000
  0.601946  0.481216  0.000000
  0.000000  0.000000  0.000000


  7.629542  -7.953072  0.000000
  -7.953072  8.417983  0.000000
  0.000000  0.000000  0.000000


  7.447359  -8.197389  0.000000
  -8.197389  8.090342  0.000000
  0.000000  0.000000  0.000000


  15.407697  -8.452986  0.000000
  -8.452986  4.793038  0.000000
  0.000000  0.000000  0.000000


  14.357487  -7.957113  0.000000
  -7.957113  4.588248  0.000000
  0.000000  0.000000  0.000000


  0.272575  -1.116145  0.000000
  -1.116145  5.023697  0.000000
  0.000000  0.000000  0.000000


  0.094524  -1.065550  0.000000
  -1.065550  5.089793  0.000000
  0.000000  0.000000  0.000000


  6.273021  -7.314288  0.000000
  -7.314288  8.745538  0.000000
  0.000000  0.000000  0.000000


  6.348292  -7.472042  0.000000
  -7.472042  8.326275  0.000000
  0.000000  0.000000  0.000000


  22.520755  -1.987550  0.000000
  -1.987550  0.308907  0.000000
  0.000000  0.000000  0.000000


  22.416676  -1.477936  0.000000
  -1.477936  -0.309618  0.000000
  0.000000  0.000000  0.000000


  22.159149  -3.227059  0.000000
  -3.227059  0.603438  0.000000
  0.000000  0.000000  0.000000


  21.902112  -3.705935  0.000000
  -3.705935  0.305147  0.000000
  0.000000  0.000000  0.000000


  3.790852  -5.735760  0.000000
  -5.735760  8.920692  0.000000
  0.000000  0.000000  0.000000


  3.722591  -5.893212  0.000000
  -5.893212  8.695296  0.000000
  0.000000  0.000000  0.000000


  2.428747  -4.449322  0.000000
  -4.449322  8.403035  0.000000
  0.000000  0.000000  0.000000


  1.933556  -4.298225  0.000000
  -4.298225  8.580884  0.000000
  0.000000  0.000000  0.000000


  19.532203  -6.513103  0.000000
  -6.513103  2.300993  0.000000
  0.000000  0.000000  0.000000


  19.046587  -7.078292  0.000000
  -7.078292  2.132097  0.000000
  0.000000  0.000000  0.000000


  0.060231  -0.402303  0.000000
  -0.402303  3.210428  0.000000
  0.000000  0.000000  0.000000


  -0.048822  -0.261845  0.000000
  -0.261845  3.252515  0.000000
  0.000000  0.000000  0.000000


  2.151169  -4.175515  0.000000
  -4.175515  8.268949  0.000000
  0.000000  0.000000  0.000000


  1.668987  -3.968966  0.000000
  -3.968966  8.397432  0.000000
  0.000000  0.000000  0.000000


  0.162674  -0.769951  0.000000
  -0.769951  4.244867  0.000000
  0.000000  0.000000  0.000000


  -0.035228  -0.572796  0.000000
  -0.572796  4.280523  0.000000
  0.000000  0.000000  0.000000


  5.381646  -6.808332  0.000000
  -6.808332  8.862793  0.000000
  0.000000  0.000000  0.000000


  5.474474  -6.941177  0.000000
  -6.941177  8.492838  0.000000
  0.000000  0.000000  0.000000


  21.739642  -4.118576  0.000000
  -4.118576  0.909868  0.000000
  0.000000  0.000000  0.000000


  21.421237  -4.633558  0.000000
  -4.633558  0.555709  0.000000
  0.000000  0.000000  0.000000


  14.844457  -8.610615  0.000000
  -8.610615  5.133724  0.000000
  0.000000  0.000000  0.000000


  14.919877  -8.642023  0.000000
  -8.642023  4.498617  0.000000
  0.000000  0.000000  0.000000


  9.949436  -8.553462  0.000000
  -8.553462  7.547786  0.000000
  0.000000  0.000000  0.000000


  10.079621  -8.662223  0.000000
  -8.662223  6.960666  0.000000
  0.000000  0.000000  0.000000


  12.559430  -8.876036  0.000000
  -8.876036  6.376987  0.000000
  0.000000  0.000000  0.000000


  12.468429  -9.079560  0.000000
  -9.079560  5.926459  0.000000
  0.000000  0.000000  0.000000


  14.010438  -8.789941  0.000000
  -8.789941  5.612608  0.000000
  0.000000  0.000000  0.000000


  13.965296  -8.951031  0.000000
  -8.951031  5.107695  0.000000
  0.000000  0.000000  0.000000


  0.690653  -2.079803  0.000000
  -2.079803  6.490612  0.000000
  0.000000  0.000000  0.000000


  0.438869  -1.990903  0.000000
  -1.990903  6.576117  0.000000
  0.000000  0.000000  0.000000


  22.531313  -1.779536  0.000000
  -1.779536  0.261620  0.000000
  0.000000  0.000000  0.000000


  22.353317  -2.301329  0.000000
  -2.301329  -0.248411  0.000000
  0.000000  0.000000  0.000000


  0.020779  -0.189834  0.000000
  -0.189834  2.331636  0.000000
  0.000000  0.000000  0.000000


  -0.071271  -0.036588  0.000000
  -0.036588  2.313753  0.000000
  0.000000  0.000000  0.000000


  6.511542  -7.455763  0.000000
  -7.455763  8.655154  0.000000
  0.000000  0.000000  0.000000


  6.038306  -7.603899  0.000000
  -7.603899  8.667682  0.000000
  0.000000  0.000000  0.000000


  23.511805  -0.375808  0.000000
  -0.375808  0.193372  0.000000
  0.000000  0.000000  0.000000


  23.281776  -1.260066  0.000000
  -1.260066  -0.144602  0.000000
  0.000000  0.000000  0.000000


  0.972965  -2.567196  0.000000
  -2.567196  7.044961  0.000000
  0.000000  0.000000  0.000000


  0.645450  -2.418440  0.000000
  -2.418440  7.201717  0.000000
  0.000000  0.000000  0.000000


  3.014504  -5.072755  0.000000
  -5.072755  8.707989  0.000000
  0.000000  0.000000  0.000000


  2.557459  -5.087555  0.000000
  -5.087555  8.850085  0.000000
  0.000000  0.000000  0.000000


  15.538367  -8.580592  0.000000
  -8.580592  4.835125  0.000000
  0.000000  0.000000  0.000000


  15.372568  -8.884163  0.000000
  -8.884163  4.335830  0.000000
  0.000000  0.000000  0.000000


  10.698621  -8.602690  0.000000
  -8.602690  7.022787  0.000000
  0.000000  0.000000  0.000000


  9.912345  -8.809379  0.000000
  -8.809379  7.294934  0.000000
  0.000000  0.000000  0.000000


  23.045871  -1.094566  0.000000
  -1.094566  0.124401  0.000000
  0.000000  0.000000  0.000000


  23.051621  -1.114001  0.000000
  -1.114001  -0.540304  0.000000
  0.000000  0.000000  0.000000


  20.176267  -6.310935  0.000000
  -6.310935  2.055601  0.000000
  0.000000  0.000000  0.000000


  20.134856  -6.483006  0.000000
  -6.483006  1.388282  0.000000
  0.000000  0.000000  0.000000


  20.651026  -5.671744  0.000000
  -5.671744  1.619023  0.000000
  0.000000  0.000000  0.000000


  20.584064  -5.860644  0.000000
  -5.860644  1.132711  0.000000
  0.000000  0.000000  0.000000


  1.676508  -3.694970  0.000000
  -3.694970  7.946166  0.000000
  0.000000  0.000000  0.000000


  1.404085  -3.341468  0.000000
  -3.341468  7.884346  0.000000
  0.000000  0.000000  0.000000


  17.347647  -7.793147  0.000000
  -7.793147  3.664168  0.000000
  0.000000  0.000000  0.000000


  17.542784  -7.557772  0.000000
  -7.557772  3.047651  0.000000
  0.000000  0.000000  0.000000


  0.017095  -0.047840  0.000000
  -0.047840  1.504460  0.000000
  0.000000  0.000000  0.000000


  -0.058495  0.089388  0.000000
  0.089388  1.518479  0.000000
  0.000000  0.000000  0.000000


  22.226952  -2.760049  0.000000
  -2.760049  0.486147  0.000000
  0.000000  0.000000  0.000000


  22.241931  -2.293697  0.000000
  -2.293697  -0.118405  0.000000
  0.000000  0.000000  0.000000


  16.237232  -8.273330  0.000000
  -8.273330  4.381732  0.000000
  0.000000  0.000000  0.000000


  16.391691  -8.102675  0.000000
  -8.102675  3.625360  0.000000
  0.000000  0.000000  0.000000


  9.243969  -8.476589  0.000000
  -8.476589  7.875173  0.000000
  0.000000  0.000000  0.000000


  8.821591  -8.743676  0.000000
  -8.743676  7.728009  0.000000
  0.000000  0.000000  0.000000


  22.069628  -3.466116  0.000000
  -3.466116  0.619004  0.000000
  0.000000  0.000000  0.000000


  22.052078  -3.557105  0.000000
  -3.557105  0.170812  0.000000
  0.000000  0.000000  0.000000


  13.092984  -8.777976  0.000000
  -8.777976  6.037090  0.000000
  0.000000  0.000000  0.000000


  12.404498  -9.162188  0.000000
  -9.162188  6.096860  0.000000
  0.000000  0.000000  0.000000


  0.507183  -1.687753  0.000000
  -1.687753  5.952289  0.000000
  0.000000  0.000000  0.000000


  0.233531  -1.504560  0.000000
  -1.504560  6.003095  0.000000
  0.000000  0.000000  0.000000


  3.816381  -5.769910  0.000000
  -5.769910  8.865388  0.000000
  0.000000  0.000000  0.000000


  3.340156  -5.783974  0.000000
  -5.783974  8.949312  0.000000
  0.000000  0.000000  0.000000


  18.770167  -7.284612  0.000000
  -7.284612  2.910054  0.000000
  0.000000  0.000000  0.000000


  18.582688  -7.602945  0.000000
  -7.602945  2.378758  0.000000
  0.000000  0.000000  0.000000


  0.261686  -1.106483  0.000000
  -1.106483  4.954138  0.000000
  0.000000  0.000000  0.000000


  0.047069  -0.879952  0.000000
  -0.879952  4.954312  0.000000
  0.000000  0.000000  0.000000


  7.571926  -7.885123  0.000000
  -7.885123  8.385338  0.000000
  0.000000  0.000000  0.000000


  6.882155  -8.013768  0.000000
  -8.013768  8.538938  0.000000
  0.000000  0.000000  0.000000


  4.497661  -6.225609  0.000000
  -6.225609  8.842931  0.000000
  0.000000  0.000000  0.000000


  3.881442  -6.115992  0.000000
  -6.115992  9.067709  0.000000
  0.000000  0.000000  0.000000


  21.494151  -4.871021  0.000000
  -4.871021  1.186210  0.000000
  0.000000  0.000000  0.000000


  21.479377  -4.976552  0.000000
  -4.976552  0.489867  0.000000
  0.000000  0.000000  0.000000


  -0.120176  0.378129  0.000000
  0.378129  0.198069  0.000000
  0.000000  0.000000  0.000000


  1.176620  0.911086  0.000000
  0.911086  -0.182723  0.000000
  0.000000  0.000000  0.000000


  -1.186126  0.881261  0.000000
  0.881261  0.186377  0.000000
  0.000000  0.000000  0.000000


  -25.621131  0.340473  0.000000
  0.340473  0.000000  0.000000
  0.000000  0.000000  0.000000


  22.038776  -1.396313  0.000000
  -1.396313  0.000000  0.000000
  0.000000  0.000000  0.000000


  1.362873  0.991074  0.000000
  0.991074  -0.122462  0.000000
  0.000000  0.000000  0.000000


  -1.471926  0.948561  0.000000
  0.948561  0.137023  0.000000
  0.000000  0.000000  0.000000


  20.046925  -1.280139  0.000000
  -1.280139  0.000000  0.000000
  0.000000  0.000000  0.000000


  -23.382521  0.433755  0.000000
  0.433755  0.000000  0.000000
  0.000000  0.000000  0.000000


  1.351393  1.053758  0.000000
  1.053758  -0.071086  0.000000
  0.000000  0.000000  0.000000


  -1.523011  1.014971  0.000000
  1.014971  0.061151  0.000000
  0.000000  0.000000  0.000000


  18.719797  -1.230235  0.000000
  -1.230235  0.000000  0.000000
  0.000000  0.000000  0.000000


  -21.858507  0.464714  0.000000
  0.464714  0.000000  0.000000
  0.000000  0.000000  0.000000


  1.243957  1.012104  0.000000
  1.012104  -0.059564  0.000000
  0.000000  0.000000  0.000000


  -1.487184  0.990418  0.000000
  0.990418  0.093206  0.000000
  0.000000  0.000000  0.000000


  16.570109  -1.218586  0.000000
  -1.218586  0.000000  0.000000
  0.000000  0.000000  0.000000


  -19.254455  0.423072  0.000000
  0.423072  0.000000  0.000000
  0.000000  0.000000  0.000000


  -0.792921  0.986350  0.000000
  0.986350  0.016043  0.000000
  0.000000  0.000000  0.000000


  -0.998986  1.019790  0.000000
  1.019790  -0.041166  0.000000
  0.000000  0.000000  0.000000


  -0.949809  0.788075  0.000000
  0.788075  0.243863  0.000000
  0.000000  0.000000  0.000000


  -24.536580  1.584343  0.000000
  1.584343  0.199794  0.000000
  0.000000  0.000000  0.000000


  -22.595247  1.266927  0.000000
  1.266927  0.066401  0.000000
  0.000000  0.000000  0.000000


  -22.398900  0.345625  0.000000
  0.345625  -0.145340  0.000000
  0.000000  0.000000  0.000000


  0.835807  1.039675  0.000000
  1.039675  0.046491  0.000000
  0.000000  0.000000  0.000000


  0.801148  0.869335  0.000000
  0.869335  -0.283953  0.000000
  0.000000  0.000000  0.000000


  0.664321  1.030817  0.000000
  1.030817  0.001174  0.000000
  0.000000  0.000000  0.000000


  19.361864  -0.542919  0.000000
  -0.542919  -0.107012  0.000000
  0.000000  0.000000  0.000000


  19.137596  -1.350946  0.000000
  -1.350946  0.081178  0.000000
  0.000000  0.000000  0.000000


  21.087665  -0.259994  0.000000
  -0.259994  -0.252158  0.000000
  0.000000  0.000000  0.000000


  -17.497433  0.284964  0.000000
  0.284964  0.000000  0.000000
  0.000000  0.000000  0.000000


  1.231055  1.069845  0.000000
  1.069845  -0.094276  0.000000
  0.000000  0.000000  0.000000


  -1.488445  1.037762  0.000000
  1.037762  0.052222  0.000000
  0.000000  0.000000  0.000000


  15.312372  -1.169180  0.000000
  -1.169180  0.000000  0.000000
  0.000000  0.000000  0.000000


  -20.333308  1.560648  0.000000
  1.560648  -0.071663  0.000000
  0.000000  0.000000  0.000000


  -22.108207  0.867437  0.000000
  0.867437  0.251877  0.000000
  0.000000  0.000000  0.000000


  0.799655  0.975621  0.000000
  0.975621  0.078588  0.000000
  0.000000  0.000000  0.000000


  0.745370  1.137226  0.000000
  1.137226  -0.108537  0.000000
  0.000000  0.000000  0.000000


  -0.996792  0.934821  0.000000
  0.934821  -0.073872  0.000000
  0.000000  0.000000  0.000000


  -0.964983  1.034593  0.000000
  1.034593  0.089191  0.000000
  0.000000  0.000000  0.000000


  17.460267  -0.299135  0.000000
  -0.299135  -0.020034  0.000000
  0.000000  0.000000  0.000000


  18.923156  -0.949782  0.000000
  -0.949782  -0.317498  0.000000
  0.000000  0.000000  0.000000


  -15.005613  0.125982  0.000000
  0.125982  0.000000  0.000000
  0.000000  0.000000  0.000000


  1.055648  1.075020  0.000000
  1.075020  -0.066469  0.000000
  0.000000  0.000000  0.000000


  -1.409431  1.014476  0.000000
  1.014476  0.068920  0.000000
  0.000000  0.000000  0.000000


  12.924974  -1.166763  0.000000
  -1.166763  0.000000  0.000000
  0.000000  0.000000  0.000000


  -0.403254  0.566214  0.000000
  0.566214  0.059138  0.000000
  0.000000  0.000000  0.000000


  19.578891  -0.572917  0.000000
  -0.572917  0.418545  0.000000
  0.000000  0.000000  0.000000


  -22.866147  1.182199  0.000000
  1.182199  -0.572900  0.000000
  0.000000  0.000000  0.000000


  -14.995430  10.960015  0.000000
  10.960015  -7.916367  0.000000
  0.000000  0.000000  0.000000


  -16.712760  9.457676  0.000000
  9.457676  -6.080555  0.000000
  0.000000  0.000000  0.000000


  18.229468  -6.452756  0.000000
  -6.452756  2.216793  0.000000
  0.000000  0.000000  0.000000


  -0.136072  0.459921  0.000000
  0.459921  -2.341848  0.000000
  0.000000  0.000000  0.000000


  -8.166248  9.264496  0.000000
  9.264496  -10.618572  0.000000
  0.000000  0.000000  0.000000


  4.708635  -6.268772  0.000000
  -6.268772  8.301407  0.000000
  0.000000  0.000000  0.000000


  1.162421  -2.861912  0.000000
  -2.861912  7.158070  0.000000
  0.000000  0.000000  0.000000


  -25.521233  1.155853  0.000000
  1.155853  -0.554640  0.000000
  0.000000  0.000000  0.000000


  -2.155224  3.928149  0.000000
  3.928149  -8.287382  0.000000
  0.000000  0.000000  0.000000


  22.581246  -1.564310  0.000000
  -1.564310  -0.131427  0.000000
  0.000000  0.000000  0.000000


  19.946202  -4.627596  0.000000
  -4.627596  1.114822  0.000000
  0.000000  0.000000  0.000000


  -26.846932  5.363179  0.000000
  5.363179  -1.179276  0.000000
  0.000000  0.000000  0.000000


  11.266265  -8.254886  0.000000
  -8.254886  6.015570  0.000000
  0.000000  0.000000  0.000000


  9.719968  -8.768804  0.000000
  -8.768804  7.400427  0.000000
  0.000000  0.000000  0.000000


  -27.970826  2.294144  0.000000
  2.294144  -0.364283  0.000000
  0.000000  0.000000  0.000000


  -25.741175  1.689879  0.000000
  1.689879  -0.556371  0.000000
  0.000000  0.000000  0.000000


  21.191194  -1.801109  0.000000
  -1.801109  0.217234  0.000000
  0.000000  0.000000  0.000000


  -4.217621  6.112699  0.000000
  6.112699  -9.921355  0.000000
  0.000000  0.000000  0.000000


  -6.417832  7.456984  0.000000
  7.456984  -9.595830  0.000000
  0.000000  0.000000  0.000000


  16.057518  -8.494569  0.000000
  -8.494569  4.103264  0.000000
  0.000000  0.000000  0.000000


  10.416280  -8.246651  0.000000
  -8.246651  6.606721  0.000000
  0.000000  0.000000  0.000000


  -3.530385  5.659397  0.000000
  5.659397  -9.971218  0.000000
  0.000000  0.000000  0.000000


  0.239489  -1.089512  0.000000
  -1.089512  4.980748  0.000000
  0.000000  0.000000  0.000000


  0.698874  -2.117471  0.000000
  -2.117471  6.543540  0.000000
  0.000000  0.000000  0.000000


  -0.379200  1.217283  0.000000
  1.217283  -4.828864  0.000000
  0.000000  0.000000  0.000000


  17.809751  -7.802737  0.000000
  -7.802737  3.020807  0.000000
  0.000000  0.000000  0.000000


  3.402366  -5.327854  0.000000
  -5.327854  8.441756  0.000000
  0.000000  0.000000  0.000000


  -1.262327  2.764107  0.000000
  2.764107  -7.127508  0.000000
  0.000000  0.000000  0.000000


  -2.376551  4.370635  0.000000
  4.370635  -9.232557  0.000000
  0.000000  0.000000  0.000000


  2.123654  -4.047386  0.000000
  -4.047386  7.872802  0.000000
  0.000000  0.000000  0.000000


  7.386032  -7.628326  0.000000
  -7.628326  7.844103  0.000000
  0.000000  0.000000  0.000000


  -0.938802  2.157143  0.000000
  2.157143  -6.602961  0.000000
  0.000000  0.000000  0.000000


  -0.090640  0.236007  0.000000
  0.236007  -1.278723  0.000000
  0.000000  0.000000  0.000000


  0.101809  -0.618164  0.000000
  -0.618164  4.242165  0.000000
  0.000000  0.000000  0.000000


  -3.309494  5.272145  0.000000
  5.272145  -9.599005  0.000000
  0.000000  0.000000  0.000000


  -8.588044  9.380345  0.000000
  9.380345  -10.493559  0.000000
  0.000000  0.000000  0.000000


  0.184650  -0.861045  0.000000
  -0.861045  4.616459  0.000000
  0.000000  0.000000  0.000000


  0.005816  0.023869  0.000000
  0.023869  1.882173  0.000000
  0.000000  0.000000  0.000000


  -1.741961  3.560590  0.000000
  3.560590  -8.484764  0.000000
  0.000000  0.000000  0.000000


  21.744950  -0.626795  0.000000
  -0.626795  0.332899  0.000000
  0.000000  0.000000  0.000000


  19.483491  -6.680122  0.000000
  -6.680122  1.999430  0.000000
  0.000000  0.000000  0.000000


  -0.086426  0.349306  0.000000
  0.349306  -1.817809  0.000000
  0.000000  0.000000  0.000000


  1.997550  -3.942317  0.000000
  -3.942317  7.885246  0.000000
  0.000000  0.000000  0.000000


  22.305166  -0.400603  0.000000
  -0.400603  0.366528  0.000000
  0.000000  0.000000  0.000000


  -0.003546  -0.015837  0.000000
  -0.015837  2.090640  0.000000
  0.000000  0.000000  0.000000


  -18.736361  9.411560  0.000000
  9.411560  -5.173070  0.000000
  0.000000  0.000000  0.000000


  1.259861  -2.945218  0.000000
  -2.945218  7.185235  0.000000
  0.000000  0.000000  0.000000


  13.356609  -8.084250  0.000000
  -8.084250  4.981637  0.000000
  0.000000  0.000000  0.000000


  -0.213266  0.671841  0.000000
  0.671841  -2.993740  0.000000
  0.000000  0.000000  0.000000


  -16.538216  10.777658  0.000000
  10.777658  -7.216517  0.000000
  0.000000  0.000000  0.000000


  0.017440  -0.196750  0.000000
  -0.196750  2.736396  0.000000
  0.000000  0.000000  0.000000


  0.004616  0.179123  0.000000
  0.179123  0.724892  0.000000
  0.000000  0.000000  0.000000


  0.086163  0.244502  0.000000
  0.244502  -0.577781  0.000000
  0.000000  0.000000  0.000000


  1.655241  -3.577362  0.000000
  -3.577362  7.621682  0.000000
  0.000000  0.000000  0.000000


  -18.362167  1.279521  0.000000
  1.279521  -0.291331  0.000000
  0.000000  0.000000  0.000000


  -17.458907  0.300959  0.000000
  0.300959  -0.598471  0.000000
  0.000000  0.000000  0.000000


  -24.721750  4.334455  0.000000
  4.334455  -1.333876  0.000000
  0.000000  0.000000  0.000000


  10.991987  -8.384728  0.000000
  -8.384728  6.388036  0.000000
  0.000000  0.000000  0.000000


  12.061199  -8.260704  0.000000
  -8.260704  5.719651  0.000000
  0.000000  0.000000  0.000000


  17.390768  -6.885549  0.000000
  -6.885549  2.838554  0.000000
  0.000000  0.000000  0.000000


  -0.082970  0.384089  0.000000
  0.384089  -2.171333  0.000000
  0.000000  0.000000  0.000000


  0.020752  0.044185  0.000000
  0.044185  1.451371  0.000000
  0.000000  0.000000  0.000000


  20.872865  -5.286067  0.000000
  -5.286067  1.058029  0.000000
  0.000000  0.000000  0.000000


  -26.024638  2.786332  0.000000
  2.786332  -0.716837  0.000000
  0.000000  0.000000  0.000000


  -0.059480  0.297543  0.000000
  0.297543  -0.891876  0.000000
  0.000000  0.000000  0.000000


  7.236377  -7.554860  0.000000
  -7.554860  8.005806  0.000000
  0.000000  0.000000  0.000000


  5.716815  -6.885164  0.000000
  -6.885164  8.381290  0.000000
  0.000000  0.000000  0.000000


  -0.180048  0.922185  0.000000
  0.922185  -4.390440  0.000000
  0.000000  0.000000  0.000000


  -2.251848  4.175321  0.000000
  4.175321  -8.941033  0.000000
  0.000000  0.000000  0.000000


  4.135316  -5.823549  0.000000
  -5.823549  8.327307  0.000000
  0.000000  0.000000  0.000000


  -24.842514  4.003627  0.000000
  4.003627  -1.333770  0.000000
  0.000000  0.000000  0.000000


  8.563654  -7.968027  0.000000
  -7.968027  7.384620  0.000000
  0.000000  0.000000  0.000000


  16.877806  -6.975382  0.000000
  -6.975382  2.865725  0.000000
  0.000000  0.000000  0.000000


  0.775365  -2.329720  0.000000
  -2.329720  6.938032  0.000000
  0.000000  0.000000  0.000000


  -9.473140  9.841407  0.000000
  9.841407  -10.230524  0.000000
  0.000000  0.000000  0.000000


  2.448982  -4.435354  0.000000
  -4.435354  8.185084  0.000000
  0.000000  0.000000  0.000000


  20.660615  -2.954862  0.000000
  -2.954862  0.410852  0.000000
  0.000000  0.000000  0.000000


  -16.797218  9.680870  0.000000
  9.680870  -6.197655  0.000000
  0.000000  0.000000  0.000000


  -19.589565  8.954142  0.000000
  8.954142  -4.755361  0.000000
  0.000000  0.000000  0.000000


  9.182574  -8.655643  0.000000
  -8.655643  7.765311  0.000000
  0.000000  0.000000  0.000000


  -1.115414  1.032745  0.000000
  1.032745  -0.033752  0.000000
  0.000000  0.000000  0.000000


  -1.101980  0.971912  0.000000
  0.971912  0.172508  0.000000
  0.000000  0.000000  0.000000


  -6.735988  8.051935  0.000000
  8.051935  -10.269428  0.000000
  0.000000  0.000000  0.000000


  0.361307  -1.713662  0.000000
  -1.713662  6.328613  0.000000
  0.000000  0.000000  0.000000


  0.015539  -0.288156  0.000000
  -0.288156  3.124143  0.000000
  0.000000  0.000000  0.000000


  -0.755408  1.879291  0.000000
  1.879291  -6.014016  0.000000
  0.000000  0.000000  0.000000


  -25.645400  3.648938  0.000000
  3.648938  -1.188895  0.000000
  0.000000  0.000000  0.000000


  0.976089  -2.624214  0.000000
  -2.624214  6.898679  0.000000
  0.000000  0.000000  0.000000


  3.066933  -5.078938  0.000000
  -5.078938  8.528133  0.000000
  0.000000  0.000000  0.000000


  -24.038719  4.635391  0.000000
  4.635391  -1.732385  0.000000
  0.000000  0.000000  0.000000


  1.079445  -2.727768  0.000000
  -2.727768  7.010051  0.000000
  0.000000  0.000000  0.000000


  1.877067  -3.742361  0.000000
  -3.742361  7.772647  0.000000
  0.000000  0.000000  0.000000


  -25.822505  1.218558  0.000000
  1.218558  -0.618837  0.000000
  0.000000  0.000000  0.000000


  -3.761996  5.632011  0.000000
  5.632011  -9.241151  0.000000
  0.000000  0.000000  0.000000


  2.320520  -4.300076  0.000000
  -4.300076  8.049270  0.000000
  0.000000  0.000000  0.000000


  19.016143  -5.781202  0.000000
  -5.781202  1.724618  0.000000
  0.000000  0.000000  0.000000


  -7.403708  8.186956  0.000000
  8.186956  -9.807815  0.000000
  0.000000  0.000000  0.000000


  3.483060  -5.440158  0.000000
  -5.440158  8.479699  0.000000
  0.000000  0.000000  0.000000


  5.228838  -6.636490  0.000000
  -6.636490  8.390305  0.000000
  0.000000  0.000000  0.000000


  0.349069  0.695949  0.000000
  0.695949  -0.013357  0.000000
  0.000000  0.000000  0.000000


  -5.783066  7.277368  0.000000
  7.277368  -9.950630  0.000000
  0.000000  0.000000  0.000000


  13.218332  -8.275380  0.000000
  -8.275380  5.243473  0.000000
  0.000000  0.000000  0.000000


  0.615594  -1.987142  0.000000
  -1.987142  6.245253  0.000000
  0.000000  0.000000  0.000000


  -22.460039  9.265655  0.000000
  9.265655  -3.730164  0.000000
  0.000000  0.000000  0.000000


  0.305463  -1.237310  0.000000
  -1.237310  5.195910  0.000000
  0.000000  0.000000  0.000000


  -0.029530  -0.323943  0.000000
  -0.323943  3.538011  0.000000
  0.000000  0.000000  0.000000


  -17.293306  9.308698  0.000000
  9.308698  -5.665464  0.000000
  0.000000  0.000000  0.000000


  -0.877895  2.289281  0.000000
  2.289281  -7.038670  0.000000
  0.000000  0.000000  0.000000


  10.563048  -8.300757  0.000000
  -8.300757  6.502674  0.000000
  0.000000  0.000000  0.000000


  20.545536  -3.583740  0.000000
  -3.583740  0.723742  0.000000
  0.000000  0.000000  0.000000


  -0.229157  0.753244  0.000000
  0.753244  -3.333265  0.000000
  0.000000  0.000000  0.000000


  21.189567  -1.500417  0.000000
  -1.500417  0.080608  0.000000
  0.000000  0.000000  0.000000


  -20.115772  8.486877  0.000000
  8.486877  -4.209598  0.000000
  0.000000  0.000000  0.000000


  -17.922058  9.197324  0.000000
  9.197324  -5.342002  0.000000
  0.000000  0.000000  0.000000


  15.498352  -8.635893  0.000000
  -8.635893  4.460745  0.000000
  0.000000  0.000000  0.000000


  16.367195  -7.342160  0.000000
  -7.342160  3.264615  0.000000
  0.000000  0.000000  0.000000


  -7.254822  7.968254  0.000000
  7.968254  -9.851327  0.000000
  0.000000  0.000000  0.000000


  -3.500105  5.552043  0.000000
  5.552043  -9.721523  0.000000
  0.000000  0.000000  0.000000


  4.141177  -5.965315  0.000000
  -5.965315  8.507777  0.000000
  0.000000  0.000000  0.000000


  -1.390806  3.070692  0.000000
  3.070692  -7.891100  0.000000
  0.000000  0.000000  0.000000


  -6.376711  7.571162  0.000000
  7.571162  -9.986036  0.000000
  0.000000  0.000000  0.000000


  2.300724  -4.323416  0.000000
  -4.323416  8.266915  0.000000
  0.000000  0.000000  0.000000


  7.300099  -7.474338  0.000000
  -7.474338  7.798143  0.000000
  0.000000  0.000000  0.000000


  -10.102754  10.037892  0.000000
  10.037892  -9.989819  0.000000
  0.000000  0.000000  0.000000


  -0.001072  -0.465098  0.000000
  -0.465098  3.964868  0.000000
  0.000000  0.000000  0.000000


  5.979474  -6.916973  0.000000
  -6.916973  8.191406  0.000000
  0.000000  0.000000  0.000000


  -24.879204  7.421802  0.000000
  7.421802  -2.425993  0.000000
  0.000000  0.000000  0.000000


  -19.693857  10.167304  0.000000
  10.167304  -5.365660  0.000000
  0.000000  0.000000  0.000000


  4.052988  -5.851983  0.000000
  -5.851983  8.574979  0.000000
  0.000000  0.000000  0.000000


  3.262693  -5.216956  0.000000
  -5.216956  8.422190  0.000000
  0.000000  0.000000  0.000000


  -5.662572  7.707322  0.000000
  7.707322  -11.009214  0.000000
  0.000000  0.000000  0.000000


  5.139364  -6.525521  0.000000
  -6.525521  8.377859  0.000000
  0.000000  0.000000  0.000000


  0.008008  -0.070189  0.000000
  -0.070189  2.294044  0.000000
  0.000000  0.000000  0.000000


  -4.617409  6.427285  0.000000
  6.427285  -9.521310  0.000000
  0.000000  0.000000  0.000000


  -16.154004  9.821913  0.000000
  9.821913  -6.477581  0.000000
  0.000000  0.000000  0.000000


  0.217193  -0.981470  0.000000
  -0.981470  4.799566  0.000000
  0.000000  0.000000  0.000000


  -25.615122  1.951951  0.000000
  1.951951  -0.832456  0.000000
  0.000000  0.000000  0.000000


  2.852681  -5.229862  0.000000
  -5.229862  8.935954  0.000000
  0.000000  0.000000  0.000000


  21.003374  -2.523633  0.000000
  -2.523633  0.369746  0.000000
  0.000000  0.000000  0.000000


  -15.054780  9.567530  0.000000
  9.567530  -6.644552  0.000000
  0.000000  0.000000  0.000000


  -0.044950  0.260229  0.000000
  0.260229  -1.754386  0.000000
  0.000000  0.000000  0.000000


  0.016562  -0.337664  0.000000
  -0.337664  3.533298  0.000000
  0.000000  0.000000  0.000000


  -0.012597  0.252446  0.000000
  0.252446  0.445438  0.000000
  0.000000  0.000000  0.000000


  -3.088284  5.040391  0.000000
  5.040391  -9.405664  0.000000
  0.000000  0.000000  0.000000


  20.486637  -3.809096  0.000000
  -3.809096  0.774891  0.000000
  0.000000  0.000000  0.000000


  13.408590  -9.011208  0.000000
  -9.011208  5.623277  0.000000
  0.000000  0.000000  0.000000


  -5.316702  6.877842  0.000000
  6.877842  -9.618520  0.000000
  0.000000  0.000000  0.000000


  -25.268305  1.543756  0.000000
  1.543756  -0.704072  0.000000
  0.000000  0.000000  0.000000


  -0.008335  -0.156115  0.000000
  -0.156115  2.934054  0.000000
  0.000000  0.000000  0.000000


  19.267056  -4.999633  0.000000
  -4.999633  1.231107  0.000000
  0.000000  0.000000  0.000000


  -13.411469  10.789762  0.000000
  10.789762  -8.728150  0.000000
  0.000000  0.000000  0.000000


  20.726389  -2.831158  0.000000
  -2.831158  0.428349  0.000000
  0.000000  0.000000  0.000000


  3.730818  -6.038641  0.000000
  -6.038641  9.050437  0.000000
  0.000000  0.000000  0.000000


  -0.477469  1.335036  0.000000
  1.335036  -5.063448  0.000000
  0.000000  0.000000  0.000000


  -5.271895  7.178585  0.000000
  7.178585  -10.542658  0.000000
  0.000000  0.000000  0.000000


  6.530964  -7.675088  0.000000
  -7.675088  8.669884  0.000000
  0.000000  0.000000  0.000000


  21.516388  -1.141827  0.000000
  -1.141827  0.186884  0.000000
  0.000000  0.000000  0.000000


  -1.380618  2.894992  0.000000
  2.894992  -7.520538  0.000000
  0.000000  0.000000  0.000000


  12.207618  -8.405915  0.000000
  -8.405915  5.866259  0.000000
  0.000000  0.000000  0.000000


  20.448000  -3.552840  0.000000
  -3.552840  0.595942  0.000000
  0.000000  0.000000  0.000000


  -15.728834  10.888615  0.000000
  10.888615  -7.709491  0.000000
  0.000000  0.000000  0.000000


  -2.870933  4.869445  0.000000
  4.869445  -9.043141  0.000000
  0.000000  0.000000  0.000000


  20.940022  -2.287263  0.000000
  -2.287263  0.366639  0.000000
  0.000000  0.000000  0.000000


  0.399524  0.627763  0.000000
  0.627763  -0.100595  0.000000
  0.000000  0.000000  0.000000


  -0.141951  0.503930  0.000000
  0.503930  -2.709228  0.000000
  0.000000  0.000000  0.000000


  0.623781  -1.962917  0.000000
  -1.962917  6.438597  0.000000
  0.000000  0.000000  0.000000


  8.387142  -7.926195  0.000000
  -7.926195  7.583976  0.000000
  0.000000  0.000000  0.000000


  -18.974164  8.785184  0.000000
  8.785184  -4.732607  0.000000
  0.000000  0.000000  0.000000


  -21.409947  9.795046  0.000000
  9.795046  -4.467264  0.000000
  0.000000  0.000000  0.000000


  0.006679  0.031439  0.000000
  0.031439  1.059614  0.000000
  0.000000  0.000000  0.000000


  7.922787  -7.693227  0.000000
  -7.693227  7.443791  0.000000
  0.000000  0.000000  0.000000


  -2.686953  4.798030  0.000000
  4.798030  -9.557808  0.000000
  0.000000  0.000000  0.000000


  8.107266  -7.717242  0.000000
  -7.717242  7.441548  0.000000
  0.000000  0.000000  0.000000


  17.900771  -6.640740  0.000000
  -6.640740  2.528791  0.000000
  0.000000  0.000000  0.000000


  -17.463355  10.723107  0.000000
  10.723107  -6.786634  0.000000
  0.000000  0.000000  0.000000


  20.049667  -4.144387  0.000000
  -4.144387  1.028917  0.000000
  0.000000  0.000000  0.000000


  8.387682  -8.449916  0.000000
  -8.449916  8.075858  0.000000
  0.000000  0.000000  0.000000


  0.839396  1.017731  0.000000
  1.017731  0.039659  0.000000
  0.000000  0.000000  0.000000


  0.826049  0.957241  0.000000
  0.957241  -0.166723  0.000000
  0.000000  0.000000  0.000000


  -25.400337  2.429033  0.000000
  2.429033  -0.760475  0.000000
  0.000000  0.000000  0.000000


  0.005092  -0.006710  0.000000
  -0.006710  1.696682  0.000000
  0.000000  0.000000  0.000000


  15.367142  -8.705411  0.000000
  -8.705411  4.506970  0.000000
  0.000000  0.000000  0.000000


  -0.546608  1.465209  0.000000
  1.465209  -5.332323  0.000000
  0.000000  0.000000  0.000000


  -25.896166  6.266808  0.000000
  6.266808  -1.570355  0.000000
  0.000000  0.000000  0.000000


  15.800096  -7.753004  0.000000
  -7.753004  3.870393  0.000000
  0.000000  0.000000  0.000000


  0.310228  -1.245650  0.000000
  -1.245650  5.421076  0.000000
  0.000000  0.000000  0.000000


  -0.602760  1.601388  0.000000
  1.601388  -5.591656  0.000000
  0.000000  0.000000  0.000000


  -0.679111  1.730664  0.000000
  1.730664  -5.810567  0.000000
  0.000000  0.000000  0.000000


  12.447659  -8.323434  0.000000
  -8.323434  5.525989  0.000000
  0.000000  0.000000  0.000000


  -0.843553  2.036602  0.000000
  2.036602  -6.304863  0.000000
  0.000000  0.000000  0.000000


  -7.109961  8.082304  0.000000
  8.082304  -9.916253  0.000000
  0.000000  0.000000  0.000000


  21.290717  -1.844999  0.000000
  -1.844999  0.220121  0.000000
  0.000000  0.000000  0.000000


  -0.329237  0.982429  0.000000
  0.982429  -4.281805  0.000000
  0.000000  0.000000  0.000000


  -5.071463  6.650649  0.000000
  6.650649  -9.884933  0.000000
  0.000000  0.000000  0.000000


  18.740144  -5.912707  0.000000
  -5.912707  1.966995  0.000000
  0.000000  0.000000  0.000000


  -25.413116  2.688628  0.000000
  2.688628  -0.999711  0.000000
  0.000000  0.000000  0.000000


  -25.063153  4.511572  0.000000
  4.511572  -1.345718  0.000000
  0.000000  0.000000  0.000000


  5.615207  -7.253114  0.000000
  -7.253114  8.903634  0.000000
  0.000000  0.000000  0.000000


  0.441701  -1.661869  0.000000
  -1.661869  6.103469  0.000000
  0.000000  0.000000  0.000000


  -25.822118  1.370517  0.000000
  1.370517  -0.586442  0.000000
  0.000000  0.000000  0.000000


  1.152329  -3.251986  0.000000
  -3.251986  7.949951  0.000000
  0.000000  0.000000  0.000000


  4.850034  -6.418416  0.000000
  -6.418416  8.596842  0.000000
  0.000000  0.000000  0.000000


  -23.590608  8.457396  0.000000
  8.457396  -2.957342  0.000000
  0.000000  0.000000  0.000000


  -17.450773  10.048084  0.000000
  10.048084  -6.230698  0.000000
  0.000000  0.000000  0.000000


  13.597297  -8.122644  0.000000
  -8.122644  4.960026  0.000000
  0.000000  0.000000  0.000000


  17.951700  -7.699860  0.000000
  -7.699860  2.953404  0.000000
  0.000000  0.000000  0.000000


  -11.863761  10.499939  0.000000
  10.499939  -9.376043  0.000000
  0.000000  0.000000  0.000000


  10.055979  -8.166915  0.000000
  -8.166915  6.683009  0.000000
  0.000000  0.000000  0.000000


  14.251102  -8.182958  0.000000
  -8.182958  4.644719  0.000000
  0.000000  0.000000  0.000000


  -0.882443  2.640564  0.000000
  2.640564  -7.830459  0.000000
  0.000000  0.000000  0.000000


  -20.708878  9.877120  0.000000
  9.877120  -4.796816  0.000000
  0.000000  0.000000  0.000000


  0.441181  -1.518901  0.000000
  -1.518901  5.728134  0.000000
  0.000000  0.000000  0.000000


  19.633987  -5.102365  0.000000
  -5.102365  1.290331  0.000000
  0.000000  0.000000  0.000000


  -0.349311  1.086853  0.000000
  1.086853  -4.579947  0.000000
  0.000000  0.000000  0.000000


  2.864171  -4.793732  0.000000
  -4.793732  8.243438  0.000000
  0.000000  0.000000  0.000000


  -0.342643  0.579347  0.000000
  0.579347  0.084063  0.000000
  0.000000  0.000000  0.000000


  -25.824786  1.167159  0.000000
  1.167159  -0.276180  0.000000
  0.000000  0.000000  0.000000


  -2.092511  4.029393  0.000000
  4.029393  -8.846430  0.000000
  0.000000  0.000000  0.000000


  11.897430  -9.066338  0.000000
  -9.066338  6.429148  0.000000
  0.000000  0.000000  0.000000


  -1.645734  3.400756  0.000000
  3.400756  -8.257935  0.000000
  0.000000  0.000000  0.000000


  16.222151  -7.540516  0.000000
  -7.540516  3.585983  0.000000
  0.000000  0.000000  0.000000


  14.655300  -8.843238  0.000000
  -8.843238  4.922265  0.000000
  0.000000  0.000000  0.000000


  15.931903  -0.530465  0.000000
  -0.530465  -0.104184  0.000000
  0.000000  0.000000  0.000000


  15.974394  -1.532947  0.000000
  -1.532947  0.190613  0.000000
  0.000000  0.000000  0.000000


  0.881289  1.104052  0.000000
  1.104052  -0.055792  0.000000
  0.000000  0.000000  0.000000


  -1.335305  1.052587  0.000000
  1.052587  0.066489  0.000000
  0.000000  0.000000  0.000000


  11.106934  -1.109811  0.000000
  -1.109811  0.000000  0.000000
  0.000000  0.000000  0.000000


  -12.861058  -0.003277  0.000000
  -0.003277  0.000000  0.000000
  0.000000  0.000000  0.000000


  0.793342  1.018491  0.000000
  1.018491  0.048718  0.000000
  0.000000  0.000000  0.000000


  0.710544  1.236044  0.000000
  1.236044  -0.144884  0.000000
  0.000000  0.000000  0.000000


  -16.020494  1.245058  0.000000
  1.245058  -0.269070  0.000000
  0.000000  0.000000  0.000000


  -17.441916  0.525411  0.000000
  0.525411  0.095387  0.000000
  0.000000  0.000000  0.000000


  -1.059177  0.966532  0.000000
  0.966532  -0.058426  0.000000
  0.000000  0.000000  0.000000


  -0.986914  1.149291  0.000000
  1.149291  0.040646  0.000000
  0.000000  0.000000  0.000000


  13.897658  -0.157888  0.000000
  -0.157888  -0.004089  0.000000
  0.000000  0.000000  0.000000


  15.618169  -0.904385  0.000000
  -0.904385  -0.393346  0.000000
  0.000000  0.000000  0.000000


  0.666253  1.124097  0.000000
  1.124097  -0.040207  0.000000
  0.000000  0.000000  0.000000


  -1.200101  1.081275  0.000000
  1.081275  0.050127  0.000000
  0.000000  0.000000  0.000000


  9.100156  -1.066477  0.000000
  -1.066477  0.000000  0.000000
  0.000000  0.000000  0.000000


  -10.540492  -0.124934  0.000000
  -0.124934  0.000000  0.000000
  0.000000  0.000000  0.000000


  -13.933123  1.174927  0.000000
  1.174927  -0.268478  0.000000
  0.000000  0.000000  0.000000


  -14.152461  -0.045663  0.000000
  -0.045663  -0.142276  0.000000
  0.000000  0.000000  0.000000


  -1.039945  1.025882  0.000000
  1.025882  -0.027702  0.000000
  0.000000  0.000000  0.000000


  -1.032455  1.102775  0.000000
  1.102775  0.130454  0.000000
  0.000000  0.000000  0.000000


  -1.032637  1.099397  0.000000
  1.099397  0.039547  0.000000
  0.000000  0.000000  0.000000


  0.635458  1.074057  0.000000
  1.074057  0.030052  0.000000
  0.000000  0.000000  0.000000


  0.621243  1.215830  0.000000
  1.215830  -0.103842  0.000000
  0.000000  0.000000  0.000000


  12.016011  -0.194091  0.000000
  -0.194091  -0.118313  0.000000
  0.000000  0.000000  0.000000


  13.032606  -1.329008  0.000000
  -1.329008  -0.237528  0.000000
  0.000000  0.000000  0.000000


  -8.149444  -0.263499  0.000000
  -0.263499  0.000000  0.000000
  0.000000  0.000000  0.000000


  0.428900  1.133991  0.000000
  1.133991  -0.025243  0.000000
  0.000000  0.000000  0.000000


  6.963896  -1.002943  0.000000
  -1.002943  0.000000  0.000000
  0.000000  0.000000  0.000000


  -5.895565  -0.329186  0.000000
  -0.329186  0.000000  0.000000
  0.000000  0.000000  0.000000


  0.174889  1.142596  0.000000
  1.142596  -0.025590  0.000000
  0.000000  0.000000  0.000000


  -0.849257  1.117101  0.000000
  1.117101  0.043587  0.000000
  0.000000  0.000000  0.000000


  4.737365  -0.811906  0.000000
  -0.811906  0.000000  0.000000
  0.000000  0.000000  0.000000


  -0.956635  1.059691  0.000000
  1.059691  -0.028140  0.000000
  0.000000  0.000000  0.000000


  -0.948864  1.155917  0.000000
  1.155917  0.088787  0.000000
  0.000000  0.000000  0.000000


  -11.705135  1.136815  0.000000
  1.136815  -0.251788  0.000000
  0.000000  0.000000  0.000000


  -11.738553  -0.101320  0.000000
  -0.101320  -0.147267  0.000000
  0.000000  0.000000  0.000000


  0.496682  1.096733  0.000000
  1.096733  0.026373  0.000000
  0.000000  0.000000  0.000000


  0.483336  1.262839  0.000000
  1.262839  -0.069886  0.000000
  0.000000  0.000000  0.000000


  10.108463  -0.051204  0.000000
  -0.051204  -0.089574  0.000000
  0.000000  0.000000  0.000000


  10.392523  -1.232564  0.000000
  -1.232564  -0.183702  0.000000
  0.000000  0.000000  0.000000


  -19.572403  1.480195  0.000000
  1.480195  -0.339908  0.000000
  0.000000  0.000000  0.000000


  -0.579044  0.820417  0.000000
  0.820417  0.004967  0.000000
  0.000000  0.000000  0.000000


  0.403050  0.987719  0.000000
  0.987719  0.070355  0.000000
  0.000000  0.000000  0.000000


  16.821208  -0.342223  0.000000
  -0.342223  0.012573  0.000000
  0.000000  0.000000  0.000000


  -14.962537  1.067025  0.000000
  1.067025  -0.534542  0.000000
  0.000000  0.000000  0.000000


  -0.695312  0.966663  0.000000
  0.966663  -0.027871  0.000000
  0.000000  0.000000  0.000000


  0.291305  1.227063  0.000000
  1.227063  -0.004538  0.000000
  0.000000  0.000000  0.000000


  0.284107  1.308424  0.000000
  1.308424  -0.129104  0.000000
  0.000000  0.000000  0.000000


  11.326690  -0.155276  0.000000
  -0.155276  -0.259212  0.000000
  0.000000  0.000000  0.000000


  11.607735  -1.235065  0.000000
  -1.235065  -0.297413  0.000000
  0.000000  0.000000  0.000000


  -12.788874  1.201563  0.000000
  1.201563  -0.438324  0.000000
  0.000000  0.000000  0.000000


  -12.868276  0.023474  0.000000
  0.023474  -0.328005  0.000000
  0.000000  0.000000  0.000000


  -0.693991  1.125616  0.000000
  1.125616  0.017100  0.000000
  0.000000  0.000000  0.000000


  -0.693425  1.134833  0.000000
  1.134833  0.150968  0.000000
  0.000000  0.000000  0.000000


  0.426193  1.110161  0.000000
  1.110161  0.008925  0.000000
  0.000000  0.000000  0.000000


  13.370322  -0.308240  0.000000
  -0.308240  -0.119514  0.000000
  0.000000  0.000000  0.000000


  -13.850055  1.308902  0.000000
  1.308902  -0.778086  0.000000
  0.000000  0.000000  0.000000


  -11.619071  1.147053  0.000000
  1.147053  -0.574113  0.000000
  0.000000  0.000000  0.000000


  0.050562  1.342364  0.000000
  1.342364  -0.028750  0.000000
  0.000000  0.000000  0.000000


  10.452141  -0.072427  0.000000
  -0.072427  -0.543000  0.000000
  0.000000  0.000000  0.000000


  -0.488459  1.037813  0.000000
  1.037813  0.035954  0.000000
  0.000000  0.000000  0.000000


  0.102013  1.231309  0.000000
  1.231309  -0.034007  0.000000
  0.000000  0.000000  0.000000


  12.985279  -0.203284  0.000000
  -0.203284  -0.377169  0.000000
  0.000000  0.000000  0.000000


  -0.495679  1.178891  0.000000
  1.178891  0.049980  0.000000
  0.000000  0.000000  0.000000


  0.196879  1.269130  0.000000
  1.269130  0.015778  0.000000
  0.000000  0.000000  0.000000


  9.232534  -0.082372  0.000000
  -0.082372  -0.355674  0.000000
  0.000000  0.000000  0.000000


  -0.668457  1.174789  0.000000
  1.174789  -0.008667  0.000000
  0.000000  0.000000  0.000000


  -10.447546  1.053412  0.000000
  1.053412  -0.414481  0.000000
  0.000000  0.000000  0.000000


  -0.591008  1.139038  0.000000
  1.139038  0.026852  0.000000
  0.000000  0.000000  0.000000


  -2.896009  -0.487595  0.000000
  -0.487595  0.000000  0.000000
  0.000000  0.000000  0.000000


  -0.099039  1.150494  0.000000
  1.150494  -0.005702  0.000000
  0.000000  0.000000  0.000000


  0.340024  1.109543  0.000000
  1.109543  0.022608  0.000000
  0.000000  0.000000  0.000000


  0.340024  1.271798  0.000000
  1.271798  -0.049593  0.000000
  0.000000  0.000000  0.000000


  0.077943  1.298033  0.000000
  1.298033  0.009065  0.000000
  0.000000  0.000000  0.000000


  8.056820  0.038137  0.000000
  0.038137  -0.127717  0.000000
  0.000000  0.000000  0.000000


  7.818515  -1.081506  0.000000
  -1.081506  -0.127717  0.000000
  0.000000  0.000000  0.000000


  7.056037  -0.034020  0.000000
  -0.034020  -0.411081  0.000000
  0.000000  0.000000  0.000000


  2.563544  -0.856733  0.000000
  -0.856733  0.000000  0.000000
  0.000000  0.000000  0.000000


  -0.861276  1.078008  0.000000
  1.078008  -0.026474  0.000000
  0.000000  0.000000  0.000000


  -0.861276  1.176010  0.000000
  1.176010  0.076105  0.000000
  0.000000  0.000000  0.000000


  -0.610521  1.228222  0.000000
  1.228222  -0.000710  0.000000
  0.000000  0.000000  0.000000


  -9.373055  1.011556  0.000000
  1.011556  -0.279128  0.000000
  0.000000  0.000000  0.000000


  -8.844096  -0.213355  0.000000
  -0.213355  -0.279128  0.000000
  0.000000  0.000000  0.000000


  -8.003230  0.867756  0.000000
  0.867756  -0.365403  0.000000
  0.000000  0.000000  0.000000


  -0.728641  1.093872  0.000000
  1.093872  -0.033383  0.000000
  0.000000  0.000000  0.000000


  -0.774306  1.181549  0.000000
  1.181549  0.047656  0.000000
  0.000000  0.000000  0.000000


  -0.515987  1.251717  0.000000
  1.251717  0.003050  0.000000
  0.000000  0.000000  0.000000


  -0.680050  1.081213  0.000000
  1.081213  0.001166  0.000000
  0.000000  0.000000  0.000000


  -7.142719  0.698321  0.000000
  0.698321  -0.115546  0.000000
  0.000000  0.000000  0.000000


  -5.908521  -0.191541  0.000000
  -0.191541  -0.601986  0.000000
  0.000000  0.000000  0.000000


  -5.827858  0.066775  0.000000
  0.066775  0.098359  0.000000
  0.000000  0.000000  0.000000


  -4.165592  0.724723  0.000000
  0.724723  -0.241930  0.000000
  0.000000  0.000000  0.000000


  0.141575  1.111738  0.000000
  1.111738  0.026487  0.000000
  0.000000  0.000000  0.000000


  0.211017  1.254267  0.000000
  1.254267  -0.019649  0.000000
  0.000000  0.000000  0.000000


  -0.084874  1.279485  0.000000
  1.279485  0.006835  0.000000
  0.000000  0.000000  0.000000


  0.080368  1.121375  0.000000
  1.121375  -0.003576  0.000000
  0.000000  0.000000  0.000000


  5.251691  -0.805395  0.000000
  -0.805395  0.109949  0.000000
  0.000000  0.000000  0.000000


  5.052811  -0.261436  0.000000
  -0.261436  -0.815909  0.000000
  0.000000  0.000000  0.000000


  5.968926  0.059790  0.000000
  0.059790  -0.335433  0.000000
  0.000000  0.000000  0.000000


  3.166103  0.193000  0.000000
  0.193000  0.085564  0.000000
  0.000000  0.000000  0.000000


  -6.949358  -0.209166  0.000000
  -0.209166  -0.609184  0.000000
  0.000000  0.000000  0.000000


  0.096580  1.381704  0.000000
  1.381704  -0.056360  0.000000
  0.000000  0.000000  0.000000


  -0.619028  1.261817  0.000000
  1.261817  0.111843  0.000000
  0.000000  0.000000  0.000000


  6.388683  -0.948228  0.000000
  -0.948228  -0.209207  0.000000
  0.000000  0.000000  0.000000


  -16.055841  0.186248  0.000000
  0.186248  -0.148198  0.000000
  0.000000  0.000000  0.000000


  -0.697544  0.954326  0.000000
  0.954326  0.303530  0.000000
  0.000000  0.000000  0.000000


  0.200509  1.351732  0.000000
  1.351732  -0.105921  0.000000
  0.000000  0.000000  0.000000


  -0.011308  1.387350  0.000000
  1.387350  -0.009863  0.000000
  0.000000  0.000000  0.000000


  12.979267  -1.295107  0.000000
  -1.295107  -0.181407  0.000000
  0.000000  0.000000  0.000000


  -0.669499  1.197917  0.000000
  1.197917  0.150350  0.000000
  0.000000  0.000000  0.000000


  -0.484523  1.257078  0.000000
  1.257078  0.036944  0.000000
  0.000000  0.000000  0.000000


  -11.045977  -0.117432  0.000000
  -0.117432  -0.626005  0.000000
  0.000000  0.000000  0.000000


  0.095300  1.274582  0.000000
  1.274582  -0.272835  0.000000
  0.000000  0.000000  0.000000


  9.023435  -1.082574  0.000000
  -1.082574  -0.310703  0.000000
  0.000000  0.000000  0.000000


  7.931945  0.018024  0.000000
  0.018024  -0.547362  0.000000
  0.000000  0.000000  0.000000


  -0.494783  1.154679  0.000000
  1.154679  0.252304  0.000000
  0.000000  0.000000  0.000000


  -10.035154  -0.091973  0.000000
  -0.091973  -0.461879  0.000000
  0.000000  0.000000  0.000000


  -8.767771  1.070891  0.000000
  1.070891  -0.619033  0.000000
  0.000000  0.000000  0.000000


  -14.637082  0.073975  0.000000
  0.073975  -0.485260  0.000000
  0.000000  0.000000  0.000000


  -0.490524  1.043890  0.000000
  1.043890  0.303989  0.000000
  0.000000  0.000000  0.000000


  -0.390467  1.108993  0.000000
  1.108993  -0.014812  0.000000
  0.000000  0.000000  0.000000


  0.051534  1.364756  0.000000
  1.364756  -0.191081  0.000000
  0.000000  0.000000  0.000000


  14.772682  -1.398050  0.000000
  -1.398050  -0.292266  0.000000
  0.000000  0.000000  0.000000


  0.384961  1.236890  0.000000
  1.236890  -0.205388  0.000000
  0.000000  0.000000  0.000000


  -1.700037  0.506833  0.000000
  0.506833  -0.304680  0.000000
  0.000000  0.000000  0.000000


  10.615701  -1.226414  0.000000
  -1.226414  -0.496403  0.000000
  0.000000  0.000000  0.000000


  -0.244628  1.117030  0.000000
  1.117030  0.007406  0.000000
  0.000000  0.000000  0.000000


  -0.357215  1.142951  0.000000
  1.142951  0.014150  0.000000
  0.000000  0.000000  0.000000


  -0.158773  1.333250  0.000000
  1.333250  0.011517  0.000000
  0.000000  0.000000  0.000000


  1.025826  0.495178  0.000000
  0.495178  -0.325871  0.000000
  0.000000  0.000000  0.000000


  -0.390419  -0.664494  0.000000
  -0.664494  0.000000  0.000000
  0.000000  0.000000  0.000000


  0.533065  -0.740116  0.000000
  -0.740116  0.148873  0.000000
  0.000000  0.000000  0.000000


  -0.325431  1.301298  0.000000
  1.301298  0.008748  0.000000
  0.000000  0.000000  0.000000


  -0.003126  1.357297  0.000000
  1.357297  -0.007772  0.000000
  0.000000  0.000000  0.000000


  -0.140529  0.405817  0.000000
  0.405817  -0.583095  0.000000
  0.000000  0.000000  0.000000


  3.651142  -0.781097  0.000000
  -0.781097  0.092743  0.000000
  0.000000  0.000000  0.000000


  -0.117500  1.404554  0.000000
  1.404554  0.002697  0.000000
  0.000000  0.000000  0.000000


  5.524429  0.164628  0.000000
  0.164628  -0.706656  0.000000
  0.000000  0.000000  0.000000


  -6.279626  0.644605  0.000000
  0.644605  -0.273656  0.000000
  0.000000  0.000000  0.000000


  -0.432619  1.315843  0.000000
  1.315843  0.031321  0.000000
  0.000000  0.000000  0.000000


  18.310923  -6.352780  0.000000
  -6.352780  1.269810  0.000000
  0.000000  0.000000  0.000000


  19.697623  -4.875608  0.000000
  -4.875608  0.493514  0.000000
  0.000000  0.000000  0.000000


  -0.136742  -0.293976  0.000000
  -0.293976  3.768490  0.000000
  0.000000  0.000000  0.000000


  15.844841  -7.830867  0.000000
  -7.830867  2.994609  0.000000
  0.000000  0.000000  0.000000


  -0.149008  -0.560507  0.000000
  -0.560507  4.303789  0.000000
  0.000000  0.000000  0.000000


  1.741255  -4.251240  0.000000
  -4.251240  8.192911  0.000000
  0.000000  0.000000  0.000000


  3.252137  -5.691239  0.000000
  -5.691239  8.474449  0.000000
  0.000000  0.000000  0.000000


  10.985458  -8.594367  0.000000
  -8.594367  5.836557  0.000000
  0.000000  0.000000  0.000000


  15.205738  -8.169723  0.000000
  -8.169723  3.334230  0.000000
  0.000000  0.000000  0.000000


  20.479522  -3.399745  0.000000
  -3.399745  -0.123433  0.000000
  0.000000  0.000000  0.000000


  20.812898  -3.017810  0.000000
  -3.017810  -0.353072  0.000000
  0.000000  0.000000  0.000000


  4.572757  -6.723516  0.000000
  -6.723516  8.264793  0.000000
  0.000000  0.000000  0.000000


  12.702854  -8.550447  0.000000
  -8.550447  4.877377  0.000000
  0.000000  0.000000  0.000000


  10.521206  -8.499289  0.000000
  -8.499289  5.972886  0.000000
  0.000000  0.000000  0.000000


  -0.134425  0.322917  0.000000
  0.322917  0.985256  0.000000
  0.000000  0.000000  0.000000


  19.992849  -4.497477  0.000000
  -4.497477  0.209914  0.000000
  0.000000  0.000000  0.000000


  8.471526  -8.189961  0.000000
  -8.189961  6.961740  0.000000
  0.000000  0.000000  0.000000


  4.859134  -6.764166  0.000000
  -6.764166  8.175588  0.000000
  0.000000  0.000000  0.000000


  18.780840  -5.917414  0.000000
  -5.917414  1.022472  0.000000
  0.000000  0.000000  0.000000


  18.332736  -6.287415  0.000000
  -6.287415  1.386761  0.000000
  0.000000  0.000000  0.000000


  13.181288  -8.471927  0.000000
  -8.471927  4.581498  0.000000
  0.000000  0.000000  0.000000


  20.488628  -3.326105  0.000000
  -3.326105  -0.141804  0.000000
  0.000000  0.000000  0.000000


  16.688536  -7.394826  0.000000
  -7.394826  2.501657  0.000000
  0.000000  0.000000  0.000000


  0.550530  -2.468153  0.000000
  -2.468153  7.033277  0.000000
  0.000000  0.000000  0.000000


  12.442205  -8.534063  0.000000
  -8.534063  5.031818  0.000000
  0.000000  0.000000  0.000000


  14.304190  -8.234313  0.000000
  -8.234313  3.882998  0.000000
  0.000000  0.000000  0.000000


  10.986833  -8.549366  0.000000
  -8.549366  5.754972  0.000000
  0.000000  0.000000  0.000000


  16.423839  -7.374938  0.000000
  -7.374938  2.574839  0.000000
  0.000000  0.000000  0.000000


  20.086998  -4.173985  0.000000
  -4.173985  0.035676  0.000000
  0.000000  0.000000  0.000000


  0.694514  -2.734230  0.000000
  -2.734230  7.337757  0.000000
  0.000000  0.000000  0.000000


  5.463990  -7.162931  0.000000
  -7.162931  8.077176  0.000000
  0.000000  0.000000  0.000000


  3.795357  -6.116065  0.000000
  -6.116065  8.310379  0.000000
  0.000000  0.000000  0.000000


  12.420722  -8.496374  0.000000
  -8.496374  4.974626  0.000000
  0.000000  0.000000  0.000000


  -0.093994  0.148013  0.000000
  0.148013  1.927696  0.000000
  0.000000  0.000000  0.000000


  3.253884  -5.611630  0.000000
  -5.611630  8.352067  0.000000
  0.000000  0.000000  0.000000


  21.500221  -0.929084  0.000000
  -0.929084  -0.605129  0.000000
  0.000000  0.000000  0.000000


  13.777460  -8.531893  0.000000
  -8.531893  4.219260  0.000000
  0.000000  0.000000  0.000000


  -0.046317  -0.901082  0.000000
  -0.901082  5.087428  0.000000
  0.000000  0.000000  0.000000


  0.143492  -1.567826  0.000000
  -1.567826  6.023953  0.000000
  0.000000  0.000000  0.000000


  -0.451713  0.623862  0.000000
  0.623862  0.462996  0.000000
  0.000000  0.000000  0.000000


  17.003807  -7.288681  0.000000
  -7.288681  2.296387  0.000000
  0.000000  0.000000  0.000000


  -0.190156  0.382910  0.000000
  0.382910  0.765943  0.000000
  0.000000  0.000000  0.000000


  21.180717  -1.262801  0.000000
  -1.262801  -0.551295  0.000000
  0.000000  0.000000  0.000000


  7.508207  -8.019064  0.000000
  -8.019064  7.482242  0.000000
  0.000000  0.000000  0.000000


  8.963168  -8.577259  0.000000
  -8.577259  6.804739  0.000000
  0.000000  0.000000  0.000000


  0.513389  -2.425315  0.000000
  -2.425315  6.914897  0.000000
  0.000000  0.000000  0.000000


  -0.079312  -0.805250  0.000000
  -0.805250  4.911511  0.000000
  0.000000  0.000000  0.000000


  0.219413  -1.714101  0.000000
  -1.714101  6.109527  0.000000
  0.000000  0.000000  0.000000


  -0.102369  0.119368  0.000000
  0.119368  2.116723  0.000000
  0.000000  0.000000  0.000000


  -0.030342  -1.018859  0.000000
  -1.018859  5.278187  0.000000
  0.000000  0.000000  0.000000


  0.330720  -2.003450  0.000000
  -2.003450  6.459995  0.000000
  0.000000  0.000000  0.000000


  1.573317  -4.020905  0.000000
  -4.020905  8.063998  0.000000
  0.000000  0.000000  0.000000


  0.617391  -2.591133  0.000000
  -2.591133  7.190053  0.000000
  0.000000  0.000000  0.000000


  19.065444  -5.440619  0.000000
  -5.440619  0.748390  0.000000
  0.000000  0.000000  0.000000


  19.675323  -4.917706  0.000000
  -4.917706  0.446303  0.000000
  0.000000  0.000000  0.000000


  17.413474  -6.989209  0.000000
  -6.989209  1.963897  0.000000
  0.000000  0.000000  0.000000


  1.969453  -4.492813  0.000000
  -4.492813  8.189887  0.000000
  0.000000  0.000000  0.000000


  -0.092477  0.191680  0.000000
  0.191680  1.688539  0.000000
  0.000000  0.000000  0.000000


  3.967822  -6.296241  0.000000
  -6.296241  8.475891  0.000000
  0.000000  0.000000  0.000000


  7.051254  -7.848765  0.000000
  -7.848765  7.575854  0.000000
  0.000000  0.000000  0.000000


  5.552876  -7.215132  0.000000
  -7.215132  8.018834  0.000000
  0.000000  0.000000  0.000000


  0.039024  -1.212039  0.000000
  -1.212039  5.470771  0.000000
  0.000000  0.000000  0.000000


  -0.130504  -0.668026  0.000000
  -0.668026  4.710619  0.000000
  0.000000  0.000000  0.000000


  19.067647  -5.598620  0.000000
  -5.598620  0.681228  0.000000
  0.000000  0.000000  0.000000


  5.781058  -7.410391  0.000000
  -7.410391  8.016982  0.000000
  0.000000  0.000000  0.000000


  16.253549  -7.651430  0.000000
  -7.651430  2.623152  0.000000
  0.000000  0.000000  0.000000


  10.291116  -8.525214  0.000000
  -8.525214  6.102246  0.000000
  0.000000  0.000000  0.000000


  8.523886  -8.296963  0.000000
  -8.296963  7.048559  0.000000
  0.000000  0.000000  0.000000


  -0.135774  -0.264163  0.000000
  -0.264163  3.598082  0.000000
  0.000000  0.000000  0.000000


  13.516436  -8.396982  0.000000
  -8.396982  4.271851  0.000000
  0.000000  0.000000  0.000000


  -0.138527  0.017093  0.000000
  0.017093  2.773364  0.000000
  0.000000  0.000000  0.000000


  20.362541  -4.057722  0.000000
  -4.057722  0.044471  0.000000
  0.000000  0.000000  0.000000


  7.268962  -7.899903  0.000000
  -7.899903  7.565720  0.000000
  0.000000  0.000000  0.000000


  10.570428  -8.571002  0.000000
  -8.571002  6.049292  0.000000
  0.000000  0.000000  0.000000


  16.415700  -7.457919  0.000000
  -7.457919  2.657759  0.000000
  0.000000  0.000000  0.000000


  -0.116464  0.075240  0.000000
  0.075240  2.319697  0.000000
  0.000000  0.000000  0.000000


  5.073287  -6.953448  0.000000
  -6.953448  8.256794  0.000000
  0.000000  0.000000  0.000000


  1.510495  -3.935522  0.000000
  -3.935522  8.023425  0.000000
  0.000000  0.000000  0.000000


  0.238725  -1.781124  0.000000
  -1.781124  6.317539  0.000000
  0.000000  0.000000  0.000000


  20.890476  -2.625897  0.000000
  -2.625897  -0.499359  0.000000
  0.000000  0.000000  0.000000


  3.123952  -5.525595  0.000000
  -5.525595  8.301609  0.000000
  0.000000  0.000000  0.000000


  2.789143  -5.317056  0.000000
  -5.317056  8.326357  0.000000
  0.000000  0.000000  0.000000


  -0.137225  -0.070078  0.000000
  -0.070078  3.002050  0.000000
  0.000000  0.000000  0.000000


  0.034195  -1.376058  0.000000
  -1.376058  5.866851  0.000000
  0.000000  0.000000  0.000000


  11.315174  -8.695099  0.000000
  -8.695099  5.688931  0.000000
  0.000000  0.000000  0.000000


  3.925124  -6.156745  0.000000
  -6.156745  8.338215  0.000000
  0.000000  0.000000  0.000000


  7.780794  -8.134225  0.000000
  -8.134225  7.380033  0.000000
  0.000000  0.000000  0.000000


  21.295530  -1.356985  0.000000
  -1.356985  -0.546484  0.000000
  0.000000  0.000000  0.000000


  3.443484  -5.902249  0.000000
  -5.902249  8.486316  0.000000
  0.000000  0.000000  0.000000


  2.974183  -5.401317  0.000000
  -5.401317  8.304420  0.000000
  0.000000  0.000000  0.000000


  21.269165  -1.543334  0.000000
  -1.543334  -0.737885  0.000000
  0.000000  0.000000  0.000000


  21.751598  -0.981652  0.000000
  -0.981652  -0.538935  0.000000
  0.000000  0.000000  0.000000


  5.058748  -6.851689  0.000000
  -6.851689  8.130921  0.000000
  0.000000  0.000000  0.000000


  12.126611  -8.693800  0.000000
  -8.693800  5.076418  0.000000
  0.000000  0.000000  0.000000


  0.410488  -2.129480  0.000000
  -2.129480  6.573919  0.000000
  0.000000  0.000000  0.000000


  -0.143091  -0.076578  0.000000
  -0.076578  3.153215  0.000000
  0.000000  0.000000  0.000000


  20.524853  -3.568480  0.000000
  -3.568480  -0.143623  0.000000
  0.000000  0.000000  0.000000


  10.041545  -8.422516  0.000000
  -8.422516  6.134654  0.000000
  0.000000  0.000000  0.000000


  1.155514  -3.466347  0.000000
  -3.466347  7.801613  0.000000
  0.000000  0.000000  0.000000


  14.625990  -8.241245  0.000000
  -8.241245  3.766183  0.000000
  0.000000  0.000000  0.000000


  18.030083  -6.471711  0.000000
  -6.471711  1.460540  0.000000
  0.000000  0.000000  0.000000


  21.057757  -2.250569  0.000000
  -2.250569  -0.565803  0.000000
  0.000000  0.000000  0.000000


  2.092637  -4.562983  0.000000
  -4.562983  8.155873  0.000000
  0.000000  0.000000  0.000000


  2.428333  -5.002930  0.000000
  -5.002930  8.389860  0.000000
  0.000000  0.000000  0.000000


  0.875063  -3.077925  0.000000
  -3.077925  7.527540  0.000000
  0.000000  0.000000  0.000000


  0.755547  -2.854154  0.000000
  -2.854154  7.373389  0.000000
  0.000000  0.000000  0.000000


  -0.149117  -0.147936  0.000000
  -0.147936  3.365017  0.000000
  0.000000  0.000000  0.000000


  8.265461  -8.197611  0.000000
  -8.197611  7.074235  0.000000
  0.000000  0.000000  0.000000


  7.292165  -7.846316  0.000000
  -7.846316  7.443762  0.000000
  0.000000  0.000000  0.000000


  1.346042  -3.759508  0.000000
  -3.759508  7.870102  0.000000
  0.000000  0.000000  0.000000


  20.616455  -3.236343  0.000000
  -3.236343  -0.191039  0.000000
  0.000000  0.000000  0.000000


  2.353798  -4.900916  0.000000
  -4.900916  8.306501  0.000000
  0.000000  0.000000  0.000000


  -0.090787  0.243825  0.000000
  0.243825  1.485137  0.000000
  0.000000  0.000000  0.000000


  6.642732  -7.746920  0.000000
  -7.746920  7.851005  0.000000
  0.000000  0.000000  0.000000


  14.288436  -8.238870  0.000000
  -8.238870  3.949121  0.000000
  0.000000  0.000000  0.000000


  11.381896  -0.141076  0.000000
  -0.141076  -0.341601  0.000000
  0.000000  0.000000  0.000000


  4.501382  -5.917299  0.000000
  -5.917299  7.666458  0.000000
  0.000000  0.000000  0.000000


  4.081420  -6.172823  0.000000
  -6.172823  7.529174  0.000000
  0.000000  0.000000  0.000000


  3.977752  -5.372326  0.000000
  -5.372326  6.925772  0.000000
  0.000000  0.000000  0.000000


  3.787965  -5.257024  0.000000
  -5.257024  6.967486  0.000000
  0.000000  0.000000  0.000000


  0.432413  -1.684616  0.000000
  -1.684616  5.914662  0.000000
  0.000000  0.000000  0.000000


  0.079447  -1.658702  0.000000
  -1.658702  5.976223  0.000000
  0.000000  0.000000  0.000000


  0.287115  -1.446797  0.000000
  -1.446797  5.450002  0.000000
  0.000000  0.000000  0.000000


  0.217448  -1.337478  0.000000
  -1.337478  5.334657  0.000000
  0.000000  0.000000  0.000000


  -0.047501  -0.042466  0.000000
  -0.042466  2.763571  0.000000
  0.000000  0.000000  0.000000


  -0.224993  0.137765  0.000000
  0.137765  2.818278  0.000000
  0.000000  0.000000  0.000000


  -0.120395  0.140153  0.000000
  0.140153  2.637120  0.000000
  0.000000  0.000000  0.000000


  -0.114715  0.204197  0.000000
  0.204197  2.448411  0.000000
  0.000000  0.000000  0.000000


  17.837321  -4.133380  0.000000
  -4.133380  0.933390  0.000000
  0.000000  0.000000  0.000000


  17.832361  -4.235678  0.000000
  -4.235678  0.122991  0.000000
  0.000000  0.000000  0.000000


  15.699790  -3.637624  0.000000
  -3.637624  0.685333  0.000000
  0.000000  0.000000  0.000000


  16.124858  -3.782023  0.000000
  -3.782023  0.713394  0.000000
  0.000000  0.000000  0.000000


  -0.036762  0.180577  0.000000
  0.180577  1.750406  0.000000
  0.000000  0.000000  0.000000


  -0.145042  0.354688  0.000000
  0.354688  1.781066  0.000000
  0.000000  0.000000  0.000000


  -0.072891  0.345216  0.000000
  0.345216  1.656315  0.000000
  0.000000  0.000000  0.000000


  -0.061789  0.373964  0.000000
  0.373964  1.472268  0.000000
  0.000000  0.000000  0.000000


  9.319883  -7.499928  0.000000
  -7.499928  5.942966  0.000000
  0.000000  0.000000  0.000000


  9.035228  -7.839426  0.000000
  -7.839426  5.541532  0.000000
  0.000000  0.000000  0.000000


  8.279697  -6.726622  0.000000
  -6.726622  5.248390  0.000000
  0.000000  0.000000  0.000000


  8.091345  -6.654399  0.000000
  -6.654399  5.228031  0.000000
  0.000000  0.000000  0.000000


  13.437958  -7.110028  0.000000
  -7.110028  3.732855  0.000000
  0.000000  0.000000  0.000000


  -1.690734  -0.762266  0.000000
  -0.762266  -0.338266  0.000000
  0.000000  0.000000  0.000000


  -3.285368  0.536784  0.000000
  0.536784  0.071270  0.000000
  0.000000  0.000000  0.000000


  13.007218  -7.155006  0.000000
  -7.155006  3.886060  0.000000
  0.000000  0.000000  0.000000


  12.706337  -7.571173  0.000000
  -7.571173  3.378800  0.000000
  0.000000  0.000000  0.000000


  11.708825  -6.522271  0.000000
  -6.522271  3.429498  0.000000
  0.000000  0.000000  0.000000


  11.411699  -6.612613  0.000000
  -6.612613  3.612942  0.000000
  0.000000  0.000000  0.000000


  3.851339  -5.545261  0.000000
  -5.545261  7.969418  0.000000
  0.000000  0.000000  0.000000


  19.117413  -1.397063  0.000000
  -1.397063  0.072015  0.000000
  0.000000  0.000000  0.000000


  19.117376  -1.423667  0.000000
  -1.423667  -0.731908  0.000000
  0.000000  0.000000  0.000000


  17.240701  -1.155578  0.000000
  -1.155578  -0.029773  0.000000
  0.000000  0.000000  0.000000


  17.214071  -1.385280  0.000000
  -1.385280  0.044395  0.000000
  0.000000  0.000000  0.000000


  18.638111  -2.687771  0.000000
  -2.687771  0.342070  0.000000
  0.000000  0.000000  0.000000


  18.586496  -2.924578  0.000000
  -2.924578  -0.492314  0.000000
  0.000000  0.000000  0.000000


  16.758510  -2.430419  0.000000
  -2.430419  0.169409  0.000000
  0.000000  0.000000  0.000000


  16.658068  -2.637578  0.000000
  -2.637578  0.236636  0.000000
  0.000000  0.000000  0.000000


  19.151734  -1.192217  0.000000
  -1.192217  0.066677  0.000000
  0.000000  0.000000  0.000000


  19.143650  -1.287161  0.000000
  -1.287161  -0.730136  0.000000
  0.000000  0.000000  0.000000


  17.336165  -0.987452  0.000000
  -0.987452  -0.027518  0.000000
  0.000000  0.000000  0.000000


  19.333247  -1.188328  0.000000
  -1.188328  -0.723216  0.000000
  0.000000  0.000000  0.000000


  19.344125  -1.049970  0.000000
  -1.049970  0.085939  0.000000
  0.000000  0.000000  0.000000


  17.461576  -0.876226  0.000000
  -0.876226  0.012962  0.000000
  0.000000  0.000000  0.000000


  17.311971  -1.195384  0.000000
  -1.195384  -0.812392  0.000000
  0.000000  0.000000  0.000000


  19.374253  -1.126840  0.000000
  -1.126840  -0.596832  0.000000
  0.000000  0.000000  0.000000


  17.437435  -1.120220  0.000000
  -1.120220  -0.757781  0.000000
  0.000000  0.000000  0.000000


  19.374183  -1.092617  0.000000
  -1.092617  0.097680  0.000000
  0.000000  0.000000  0.000000


  21.664997  -0.707744  0.000000
  -0.707744  -0.590281  0.000000
  0.000000  0.000000  0.000000


  17.406176  -0.697844  0.000000
  -0.697844  0.224322  0.000000
  0.000000  0.000000  0.000000


  15.129078  -0.919521  0.000000
  -0.919521  0.023355  0.000000
  0.000000  0.000000  0.000000


  15.282115  -0.946947  0.000000
  -0.946947  -0.084955  0.000000
  0.000000  0.000000  0.000000


  15.272638  -1.047232  0.000000
  -1.047232  -0.810457  0.000000
  0.000000  0.000000  0.000000


  13.114394  -0.880209  0.000000
  -0.880209  -0.130933  0.000000
  0.000000  0.000000  0.000000


  13.126242  -1.019827  0.000000
  -1.019827  -0.829198  0.000000
  0.000000  0.000000  0.000000


  13.231747  -0.872123  0.000000
  -0.872123  -0.178634  0.000000
  0.000000  0.000000  0.000000


  15.263969  -1.024710  0.000000
  -1.024710  -0.131266  0.000000
  0.000000  0.000000  0.000000


  13.215209  -1.046161  0.000000
  -1.046161  -0.965533  0.000000
  0.000000  0.000000  0.000000


  15.254170  -1.127612  0.000000
  -1.127612  -0.972555  0.000000
  0.000000  0.000000  0.000000


  13.196674  -1.017816  0.000000
  -1.017816  -0.227804  0.000000
  0.000000  0.000000  0.000000


  13.199075  -1.025961  0.000000
  -1.025961  -1.069374  0.000000
  0.000000  0.000000  0.000000


  15.191122  -1.220329  0.000000
  -1.220329  -0.952634  0.000000
  0.000000  0.000000  0.000000


  15.183808  -6.345577  0.000000
  -6.345577  2.607979  0.000000
  0.000000  0.000000  0.000000


  14.935711  -6.765738  0.000000
  -6.765738  2.024860  0.000000
  0.000000  0.000000  0.000000


  13.582476  -5.801387  0.000000
  -5.801387  2.287150  0.000000
  0.000000  0.000000  0.000000


  13.367174  -5.912345  0.000000
  -5.912345  2.425266  0.000000
  0.000000  0.000000  0.000000


  7.532015  -7.157532  0.000000
  -7.157532  6.743526  0.000000
  0.000000  0.000000  0.000000


  7.146196  -7.501360  0.000000
  -7.501360  6.454915  0.000000
  0.000000  0.000000  0.000000


  6.746156  -6.515906  0.000000
  -6.515906  6.038124  0.000000
  0.000000  0.000000  0.000000


  6.495505  -6.464032  0.000000
  -6.464032  6.147664  0.000000
  0.000000  0.000000  0.000000


  -15.634946  1.295072  0.000000
  1.295072  -0.753151  0.000000
  0.000000  0.000000  0.000000


  18.487935  -2.951036  0.000000
  -2.951036  0.423558  0.000000
  0.000000  0.000000  0.000000


  18.464062  -3.094174  0.000000
  -3.094174  -0.431621  0.000000
  0.000000  0.000000  0.000000


  16.590618  -2.852047  0.000000
  -2.852047  0.314674  0.000000
  0.000000  0.000000  0.000000


  16.584585  -2.939812  0.000000
  -2.939812  -0.605613  0.000000
  0.000000  0.000000  0.000000


  18.413491  -3.287839  0.000000
  -3.287839  -0.376833  0.000000
  0.000000  0.000000  0.000000


  16.542185  -3.042636  0.000000
  -3.042636  0.373050  0.000000
  0.000000  0.000000  0.000000


  18.409363  -3.224160  0.000000
  -3.224160  0.530494  0.000000
  0.000000  0.000000  0.000000


  16.538548  -3.125513  0.000000
  -3.125513  -0.526760  0.000000
  0.000000  0.000000  0.000000


  18.379903  -3.455867  0.000000
  -3.455867  -0.322850  0.000000
  0.000000  0.000000  0.000000


  16.474311  -3.189854  0.000000
  -3.189854  0.440187  0.000000
  0.000000  0.000000  0.000000


  18.406114  -3.303222  0.000000
  -3.303222  0.564980  0.000000
  0.000000  0.000000  0.000000


  16.458374  -3.312465  0.000000
  -3.312465  -0.443978  0.000000
  0.000000  0.000000  0.000000


  18.338637  -3.550834  0.000000
  -3.550834  -0.220777  0.000000
  0.000000  0.000000  0.000000


  14.643220  -2.635349  0.000000
  -2.635349  0.114619  0.000000
  0.000000  0.000000  0.000000


  14.625305  -2.760720  0.000000
  -2.760720  -0.759458  0.000000
  0.000000  0.000000  0.000000


  12.716579  -2.262723  0.000000
  -2.262723  -0.102727  0.000000
  0.000000  0.000000  0.000000


  12.661124  -2.452386  0.000000
  -2.452386  -0.029957  0.000000
  0.000000  0.000000  0.000000


  14.600513  -2.785981  0.000000
  -2.785981  0.175196  0.000000
  0.000000  0.000000  0.000000


  14.589320  -2.892101  0.000000
  -2.892101  -0.696946  0.000000
  0.000000  0.000000  0.000000


  12.612111  -2.627078  0.000000
  -2.627078  0.058084  0.000000
  0.000000  0.000000  0.000000


  12.611246  -2.695757  0.000000
  -2.695757  -0.842511  0.000000
  0.000000  0.000000  0.000000


  14.581960  -3.009778  0.000000
  -3.009778  -0.640715  0.000000
  0.000000  0.000000  0.000000


  16.464331  -3.427612  0.000000
  -3.427612  0.658062  0.000000
  0.000000  0.000000  0.000000


  14.572970  -2.996130  0.000000
  -2.996130  0.311566  0.000000
  0.000000  0.000000  0.000000


  16.465741  -3.487998  0.000000
  -3.487998  -0.403253  0.000000
  0.000000  0.000000  0.000000


  14.629740  -3.172748  0.000000
  -3.172748  0.350936  0.000000
  0.000000  0.000000  0.000000


  14.623481  -3.271575  0.000000
  -3.271575  -0.554691  0.000000
  0.000000  0.000000  0.000000


  16.230826  -3.931629  0.000000
  -3.931629  -0.438216  0.000000
  0.000000  0.000000  0.000000


  18.361395  -3.403826  0.000000
  -3.403826  0.561613  0.000000
  0.000000  0.000000  0.000000


  20.133250  -4.462760  0.000000
  -4.462760  0.103148  0.000000
  0.000000  0.000000  0.000000


  14.702291  -2.465024  0.000000
  -2.465024  0.063163  0.000000
  0.000000  0.000000  0.000000


  12.687426  -2.423933  0.000000
  -2.423933  -0.976953  0.000000
  0.000000  0.000000  0.000000


  10.663956  -2.228679  0.000000
  -2.228679  -0.173409  0.000000
  0.000000  0.000000  0.000000


  12.618230  -2.752277  0.000000
  -2.752277  0.075352  0.000000
  0.000000  0.000000  0.000000


  12.606032  -2.854902  0.000000
  -2.854902  -0.747370  0.000000
  0.000000  0.000000  0.000000


  10.652495  -2.376513  0.000000
  -2.376513  -0.138985  0.000000
  0.000000  0.000000  0.000000


  10.664487  -2.584135  0.000000
  -2.584135  -0.035508  0.000000
  0.000000  0.000000  0.000000


  10.648202  -2.453188  0.000000
  -2.453188  -0.976271  0.000000
  0.000000  0.000000  0.000000


  8.678538  -1.972879  0.000000
  -1.972879  -0.334778  0.000000
  0.000000  0.000000  0.000000


  8.704999  -2.167570  0.000000
  -2.167570  -0.265574  0.000000
  0.000000  0.000000  0.000000


  10.677822  -2.596268  0.000000
  -2.596268  -0.966777  0.000000
  0.000000  0.000000  0.000000


  8.634856  -2.313539  0.000000
  -2.313539  -0.203060  0.000000
  0.000000  0.000000  0.000000


  12.537995  -3.002382  0.000000
  -3.002382  -0.731740  0.000000
  0.000000  0.000000  0.000000


  10.649315  -2.344417  0.000000
  -2.344417  -1.067591  0.000000
  0.000000  0.000000  0.000000


  8.681422  -1.838217  0.000000
  -1.838217  -0.385952  0.000000
  0.000000  0.000000  0.000000


  10.671212  -2.202588  0.000000
  -2.202588  -1.129260  0.000000
  0.000000  0.000000  0.000000


  8.686726  -1.714985  0.000000
  -1.714985  -0.435006  0.000000
  0.000000  0.000000  0.000000


  8.669411  -1.943984  0.000000
  -1.943984  -1.264411  0.000000
  0.000000  0.000000  0.000000


  10.714560  -2.075244  0.000000
  -2.075244  -1.164875  0.000000
  0.000000  0.000000  0.000000


  8.674551  -1.819350  0.000000
  -1.819350  -1.299409  0.000000
  0.000000  0.000000  0.000000


  8.668121  -2.074677  0.000000
  -2.074677  -1.198086  0.000000
  0.000000  0.000000  0.000000


  8.732408  -2.126041  0.000000
  -2.126041  -1.123760  0.000000
  0.000000  0.000000  0.000000


  6.610608  -1.472670  0.000000
  -1.472670  -0.578427  0.000000
  0.000000  0.000000  0.000000


  6.602282  -1.562916  0.000000
  -1.562916  -1.423788  0.000000
  0.000000  0.000000  0.000000


  6.618417  -1.592713  0.000000
  -1.592713  -0.535265  0.000000
  0.000000  0.000000  0.000000


  6.615095  -1.670267  0.000000
  -1.670267  -1.398448  0.000000
  0.000000  0.000000  0.000000


  4.488471  -1.184701  0.000000
  -1.184701  -0.719363  0.000000
  0.000000  0.000000  0.000000


  4.483880  -1.261507  0.000000
  -1.261507  -1.537431  0.000000
  0.000000  0.000000  0.000000


  2.275451  -0.765585  0.000000
  -0.765585  -0.832910  0.000000
  0.000000  0.000000  0.000000


  2.539733  -0.918594  0.000000
  -0.918594  -0.880695  0.000000
  0.000000  0.000000  0.000000


  4.477289  -1.307662  0.000000
  -1.307662  -0.624590  0.000000
  0.000000  0.000000  0.000000


  4.492224  -1.089560  0.000000
  -1.089560  -0.725665  0.000000
  0.000000  0.000000  0.000000


  4.466105  -1.236251  0.000000
  -1.236251  -1.518440  0.000000
  0.000000  0.000000  0.000000


  2.398556  -0.761857  0.000000
  -0.761857  -0.838321  0.000000
  0.000000  0.000000  0.000000


  4.516686  -1.180782  0.000000
  -1.180782  -1.552505  0.000000
  0.000000  0.000000  0.000000


  2.407857  -0.786585  0.000000
  -0.786585  -1.584018  0.000000
  0.000000  0.000000  0.000000


  2.255491  -0.890467  0.000000
  -0.890467  -1.613999  0.000000
  0.000000  0.000000  0.000000


  2.552278  -0.932242  0.000000
  -0.932242  -1.674850  0.000000
  0.000000  0.000000  0.000000


  14.676078  -2.619552  0.000000
  -2.619552  -0.828039  0.000000
  0.000000  0.000000  0.000000


  12.777744  -2.113155  0.000000
  -2.113155  -0.149305  0.000000
  0.000000  0.000000  0.000000


  14.741825  -2.470368  0.000000
  -2.470368  -0.868440  0.000000
  0.000000  0.000000  0.000000


  12.746750  -2.282119  0.000000
  -2.282119  -1.020176  0.000000
  0.000000  0.000000  0.000000


  10.814121  -1.773404  0.000000
  -1.773404  -0.343796  0.000000
  0.000000  0.000000  0.000000


  12.832362  -2.160082  0.000000
  -2.160082  -1.053274  0.000000
  0.000000  0.000000  0.000000


  10.778205  -1.955413  0.000000
  -1.955413  -1.196144  0.000000
  0.000000  0.000000  0.000000


  12.651566  -2.550397  0.000000
  -2.550397  -0.924509  0.000000
  0.000000  0.000000  0.000000


  10.690825  -2.070568  0.000000
  -2.070568  -0.240636  0.000000
  0.000000  0.000000  0.000000


  8.696842  -2.144256  0.000000
  -2.144256  -1.155502  0.000000
  0.000000  0.000000  0.000000


  17.721982  -4.221944  0.000000
  -4.221944  0.977683  0.000000
  0.000000  0.000000  0.000000


  17.667677  -4.436350  0.000000
  -4.436350  0.135791  0.000000
  0.000000  0.000000  0.000000


  15.835233  -4.019399  0.000000
  -4.019399  0.874732  0.000000
  0.000000  0.000000  0.000000


  15.775125  -4.251946  0.000000
  -4.251946  -0.003824  0.000000
  0.000000  0.000000  0.000000


  17.599847  -4.762816  0.000000
  -4.762816  0.178527  0.000000
  0.000000  0.000000  0.000000


  13.920510  -3.612258  0.000000
  -3.612258  0.570812  0.000000
  0.000000  0.000000  0.000000


  13.826152  -3.711467  0.000000
  -3.711467  0.640835  0.000000
  0.000000  0.000000  0.000000


  15.852748  -3.982449  0.000000
  -3.982449  0.813953  0.000000
  0.000000  0.000000  0.000000


  17.668903  -4.482599  0.000000
  -4.482599  1.284242  0.000000
  0.000000  0.000000  0.000000


  19.226327  -5.478711  0.000000
  -5.478711  0.464588  0.000000
  0.000000  0.000000  0.000000


  7.416196  -7.109198  0.000000
  -7.109198  6.777295  0.000000
  0.000000  0.000000  0.000000


  6.972012  -7.460221  0.000000
  -7.460221  6.538331  0.000000
  0.000000  0.000000  0.000000


  6.308187  -6.419746  0.000000
  -6.419746  6.239435  0.000000
  0.000000  0.000000  0.000000


  5.924148  -6.762784  0.000000
  -6.762784  5.950802  0.000000
  0.000000  0.000000  0.000000


  6.754462  -7.370212  0.000000
  -7.370212  6.588903  0.000000
  0.000000  0.000000  0.000000


  6.112911  -6.365348  0.000000
  -6.365348  6.348396  0.000000
  0.000000  0.000000  0.000000


  7.258741  -7.024023  0.000000
  -7.024023  6.755391  0.000000
  0.000000  0.000000  0.000000


  5.735808  -6.707303  0.000000
  -6.707303  6.049761  0.000000
  0.000000  0.000000  0.000000


  6.556664  -7.313259  0.000000
  -7.313259  6.683412  0.000000
  0.000000  0.000000  0.000000


  5.928369  -6.306756  0.000000
  -6.306756  6.428379  0.000000
  0.000000  0.000000  0.000000


  7.054387  -6.980109  0.000000
  -6.980109  6.837652  0.000000
  0.000000  0.000000  0.000000


  5.536571  -6.641155  0.000000
  -6.641155  6.158250  0.000000
  0.000000  0.000000  0.000000


  6.321877  -7.212490  0.000000
  -7.212490  6.746326  0.000000
  0.000000  0.000000  0.000000


  5.730030  -6.241521  0.000000
  -6.241521  6.522487  0.000000
  0.000000  0.000000  0.000000


  6.737272  -6.888623  0.000000
  -6.888623  6.974779  0.000000
  0.000000  0.000000  0.000000


  5.344162  -6.572928  0.000000
  -6.572928  6.248142  0.000000
  0.000000  0.000000  0.000000


  6.121958  -7.156875  0.000000
  -7.156875  6.848933  0.000000
  0.000000  0.000000  0.000000


  5.546399  -6.178036  0.000000
  -6.178036  6.589178  0.000000
  0.000000  0.000000  0.000000


  6.488650  -6.834657  0.000000
  -6.834657  7.126676  0.000000
  0.000000  0.000000  0.000000


  5.149288  -6.501371  0.000000
  -6.501371  6.339155  0.000000
  0.000000  0.000000  0.000000


  5.937300  -7.085467  0.000000
  -7.085467  6.922283  0.000000
  0.000000  0.000000  0.000000


  5.373293  -6.088600  0.000000
  -6.088600  6.631186  0.000000
  0.000000  0.000000  0.000000


  6.395008  -6.764171  0.000000
  -6.764171  7.112412  0.000000
  0.000000  0.000000  0.000000


  4.929320  -6.410704  0.000000
  -6.410704  6.424737  0.000000
  0.000000  0.000000  0.000000


  5.854118  -6.992292  0.000000
  -6.992292  6.972488  0.000000
  0.000000  0.000000  0.000000


  4.956976  -5.623332  0.000000
  -5.623332  5.772368  0.000000
  0.000000  0.000000  0.000000


  4.541488  -5.947349  0.000000
  -5.947349  5.547049  0.000000
  0.000000  0.000000  0.000000


  4.165672  -4.981745  0.000000
  -4.981745  5.066193  0.000000
  0.000000  0.000000  0.000000


  3.961167  -4.929238  0.000000
  -4.929238  5.187243  0.000000
  0.000000  0.000000  0.000000


  4.795486  -5.563139  0.000000
  -5.563139  5.842702  0.000000
  0.000000  0.000000  0.000000


  4.395516  -5.882082  0.000000
  -5.882082  5.606341  0.000000
  0.000000  0.000000  0.000000


  3.787844  -4.875057  0.000000
  -4.875057  5.298600  0.000000
  0.000000  0.000000  0.000000


  3.481079  -5.189137  0.000000
  -5.189137  4.977355  0.000000
  0.000000  0.000000  0.000000


  4.256965  -5.816418  0.000000
  -5.816418  5.658964  0.000000
  0.000000  0.000000  0.000000


  3.649709  -4.825045  0.000000
  -4.825045  5.391666  0.000000
  0.000000  0.000000  0.000000


  4.629905  -5.501222  0.000000
  -5.501222  5.918099  0.000000
  0.000000  0.000000  0.000000


  3.320396  -5.142070  0.000000
  -5.142070  5.087753  0.000000
  0.000000  0.000000  0.000000


  4.174208  -5.758575  0.000000
  -5.758575  5.710631  0.000000
  0.000000  0.000000  0.000000


  5.261487  -6.044094  0.000000
  -6.044094  6.688566  0.000000
  0.000000  0.000000  0.000000


  2.907332  -4.184695  0.000000
  -4.184695  4.611085  0.000000
  0.000000  0.000000  0.000000


  2.560810  -4.492518  0.000000
  -4.492518  4.345651  0.000000
  0.000000  0.000000  0.000000


  2.112824  -3.505279  0.000000
  -3.505279  3.863135  0.000000
  0.000000  0.000000  0.000000


  1.980748  -3.478456  0.000000
  -3.478456  3.977988  0.000000
  0.000000  0.000000  0.000000


  2.777556  -4.154843  0.000000
  -4.154843  4.724816  0.000000
  0.000000  0.000000  0.000000


  4.442894  -5.442325  0.000000
  -5.442325  6.082672  0.000000
  0.000000  0.000000  0.000000


  4.832252  -6.358299  0.000000
  -6.358299  6.468222  0.000000
  0.000000  0.000000  0.000000


  4.217839  -5.424989  0.000000
  -5.424989  6.153504  0.000000
  0.000000  0.000000  0.000000


  3.857983  -5.700211  0.000000
  -5.700211  5.950982  0.000000
  0.000000  0.000000  0.000000


  5.216011  -6.262180  0.000000
  -6.262180  6.283319  0.000000
  0.000000  0.000000  0.000000


  6.268650  -6.702210  0.000000
  -6.702210  7.087375  0.000000
  0.000000  0.000000  0.000000


  6.222322  -7.683221  0.000000
  -7.683221  8.069447  0.000000
  0.000000  0.000000  0.000000


  3.557463  -4.827083  0.000000
  -4.827083  5.421317  0.000000
  0.000000  0.000000  0.000000


  3.299771  -5.091430  0.000000
  -5.091430  5.150150  0.000000
  0.000000  0.000000  0.000000


  2.588281  -4.162566  0.000000
  -4.162566  4.940997  0.000000
  0.000000  0.000000  0.000000


  2.484401  -4.424025  0.000000
  -4.424025  4.461885  0.000000
  0.000000  0.000000  0.000000


  3.341928  -5.070055  0.000000
  -5.070055  5.140229  0.000000
  0.000000  0.000000  0.000000


  5.281700  -5.724987  0.000000
  -5.724987  5.618706  0.000000
  0.000000  0.000000  0.000000


  4.893108  -6.055933  0.000000
  -6.055933  5.359797  0.000000
  0.000000  0.000000  0.000000


  4.427266  -5.063142  0.000000
  -5.063142  4.929849  0.000000
  0.000000  0.000000  0.000000


  4.265007  -5.033099  0.000000
  -5.033099  4.987588  0.000000
  0.000000  0.000000  0.000000


  3.914548  -5.339203  0.000000
  -5.339203  4.741704  0.000000
  0.000000  0.000000  0.000000


  4.690769  -6.010474  0.000000
  -6.010474  5.489371  0.000000
  0.000000  0.000000  0.000000


  3.432464  -4.355381  0.000000
  -4.355381  4.295595  0.000000
  0.000000  0.000000  0.000000


  3.213078  -4.330293  0.000000
  -4.330293  4.475300  0.000000
  0.000000  0.000000  0.000000


  5.121575  -5.679453  0.000000
  -5.679453  5.705556  0.000000
  0.000000  0.000000  0.000000


  3.476154  -4.809276  0.000000
  -4.809276  5.602229  0.000000
  0.000000  0.000000  0.000000


  4.015302  -5.809455  0.000000
  -5.809455  5.999438  0.000000
  0.000000  0.000000  0.000000


  3.549469  -4.798515  0.000000
  -4.798515  5.620390  0.000000
  0.000000  0.000000  0.000000


  4.202336  -5.518480  0.000000
  -5.518480  6.440937  0.000000
  0.000000  0.000000  0.000000


  3.043943  -5.091924  0.000000
  -5.091924  5.507621  0.000000
  0.000000  0.000000  0.000000


  3.956890  -5.803240  0.000000
  -5.803240  6.143188  0.000000
  0.000000  0.000000  0.000000


  2.994935  -4.634243  0.000000
  -4.634243  4.062050  0.000000
  0.000000  0.000000  0.000000


  1.811561  -3.502170  0.000000
  -3.502170  4.300725  0.000000
  0.000000  0.000000  0.000000


  4.006086  -5.408157  0.000000
  -5.408157  4.676123  0.000000
  0.000000  0.000000  0.000000


  3.562889  -4.384869  0.000000
  -4.384869  4.220043  0.000000
  0.000000  0.000000  0.000000


  4.158483  -5.462734  0.000000
  -5.462734  4.611232  0.000000
  0.000000  0.000000  0.000000


  3.155214  -4.727217  0.000000
  -4.727217  3.956852  0.000000
  0.000000  0.000000  0.000000


  2.632318  -4.202412  0.000000
  -4.202412  4.981543  0.000000
  0.000000  0.000000  0.000000


  2.587306  -4.412191  0.000000
  -4.412191  4.576224  0.000000
  0.000000  0.000000  0.000000


  1.709288  -3.636690  0.000000
  -3.636690  4.655119  0.000000
  0.000000  0.000000  0.000000


  1.836690  -3.789090  0.000000
  -3.789090  3.928561  0.000000
  0.000000  0.000000  0.000000


  2.655285  -4.219412  0.000000
  -4.219412  5.363657  0.000000
  0.000000  0.000000  0.000000


  0.965842  -2.876969  0.000000
  -2.876969  3.780299  0.000000
  0.000000  0.000000  0.000000


  1.040111  -3.022254  0.000000
  -3.022254  4.050516  0.000000
  0.000000  0.000000  0.000000


  3.778134  -5.314829  0.000000
  -5.314829  4.789475  0.000000
  0.000000  0.000000  0.000000


  3.142610  -4.285932  0.000000
  -4.285932  4.531075  0.000000
  0.000000  0.000000  0.000000


  2.816829  -4.599808  0.000000
  -4.599808  4.230095  0.000000
  0.000000  0.000000  0.000000


  3.641428  -5.252635  0.000000
  -5.252635  4.860796  0.000000
  0.000000  0.000000  0.000000


  3.038943  -4.234095  0.000000
  -4.234095  4.538814  0.000000
  0.000000  0.000000  0.000000


  2.639730  -4.533838  0.000000
  -4.533838  4.331077  0.000000
  0.000000  0.000000  0.000000


  2.300130  -3.609834  0.000000
  -3.609834  3.748070  0.000000
  0.000000  0.000000  0.000000


  2.005566  -3.898907  0.000000
  -3.898907  3.468581  0.000000
  0.000000  0.000000  0.000000


  1.482361  -2.880672  0.000000
  -2.880672  2.993001  0.000000
  0.000000  0.000000  0.000000


  1.327686  -2.889683  0.000000
  -2.889683  3.173251  0.000000
  0.000000  0.000000  0.000000


  2.254201  -3.570001  0.000000
  -3.570001  3.760338  0.000000
  0.000000  0.000000  0.000000


  1.939112  -3.858186  0.000000
  -3.858186  3.497769  0.000000
  0.000000  0.000000  0.000000


  1.232475  -2.867320  0.000000
  -2.867320  3.293102  0.000000
  0.000000  0.000000  0.000000


  1.066786  -3.150841  0.000000
  -3.150841  2.872714  0.000000
  0.000000  0.000000  0.000000


  1.840013  -3.818687  0.000000
  -3.818687  3.507493  0.000000
  0.000000  0.000000  0.000000


  1.217072  -2.824047  0.000000
  -2.824047  3.313766  0.000000
  0.000000  0.000000  0.000000


  0.947240  -3.118334  0.000000
  -3.118334  2.995856  0.000000
  0.000000  0.000000  0.000000


  1.758422  -3.777692  0.000000
  -3.777692  3.593431  0.000000
  0.000000  0.000000  0.000000


  1.164030  -2.787523  0.000000
  -2.787523  3.346131  0.000000
  0.000000  0.000000  0.000000


  0.885297  -3.081462  0.000000
  -3.081462  3.036812  0.000000
  0.000000  0.000000  0.000000


  1.663975  -3.781576  0.000000
  -3.781576  3.696904  0.000000
  0.000000  0.000000  0.000000


  1.115055  -2.761261  0.000000
  -2.761261  3.502232  0.000000
  0.000000  0.000000  0.000000


  0.514111  -2.132443  0.000000
  -2.132443  2.420737  0.000000
  0.000000  0.000000  0.000000


  0.441420  -2.125026  0.000000
  -2.125026  2.460343  0.000000
  0.000000  0.000000  0.000000


  0.181281  -2.389351  0.000000
  -2.389351  2.191848  0.000000
  0.000000  0.000000  0.000000


  -0.317390  -1.370188  0.000000
  -1.370188  1.652670  0.000000
  0.000000  0.000000  0.000000


  -0.434864  -1.367366  0.000000
  -1.367366  1.808861  0.000000
  0.000000  0.000000  0.000000


  0.417022  -2.087104  0.000000
  -2.087104  2.526474  0.000000
  0.000000  0.000000  0.000000


  0.157879  -2.377835  0.000000
  -2.377835  2.204451  0.000000
  0.000000  0.000000  0.000000


  -0.452001  -1.340770  0.000000
  -1.340770  1.870197  0.000000
  0.000000  0.000000  0.000000


  -0.679260  -1.628352  0.000000
  -1.628352  1.519611  0.000000
  0.000000  0.000000  0.000000


  0.160505  -2.356003  0.000000
  -2.356003  2.250237  0.000000
  0.000000  0.000000  0.000000


  0.343194  -2.065809  0.000000
  -2.065809  2.676852  0.000000
  0.000000  0.000000  0.000000


  0.781678  -3.117416  0.000000
  -3.117416  3.122349  0.000000
  0.000000  0.000000  0.000000


  2.043493  -3.948213  0.000000
  -3.948213  3.426353  0.000000
  0.000000  0.000000  0.000000


  1.107136  -3.187170  0.000000
  -3.187170  2.780366  0.000000
  0.000000  0.000000  0.000000


  0.522286  -2.124001  0.000000
  -2.124001  2.343340  0.000000
  0.000000  0.000000  0.000000


  1.127123  -3.195546  0.000000
  -3.195546  2.723462  0.000000
  0.000000  0.000000  0.000000


  0.281782  -2.418950  0.000000
  -2.418950  1.983454  0.000000
  0.000000  0.000000  0.000000


  0.585707  -2.148592  0.000000
  -2.148592  2.262360  0.000000
  0.000000  0.000000  0.000000


  -1.193327  -0.602932  0.000000
  -0.602932  1.016683  0.000000
  0.000000  0.000000  0.000000


  -0.668438  -1.660530  0.000000
  -1.660530  1.421298  0.000000
  0.000000  0.000000  0.000000


  -0.458346  -1.382601  0.000000
  -1.382601  1.999818  0.000000
  0.000000  0.000000  0.000000


  0.174779  -2.440854  0.000000
  -2.440854  2.148793  0.000000
  0.000000  0.000000  0.000000


  -0.382892  -1.393839  0.000000
  -1.393839  1.641329  0.000000
  0.000000  0.000000  0.000000


  -0.534363  -1.640802  0.000000
  -1.640802  1.268755  0.000000
  0.000000  0.000000  0.000000


  -1.247654  -0.589708  0.000000
  -0.589708  0.848525  0.000000
  0.000000  0.000000  0.000000


  -1.287348  -0.625159  0.000000
  -0.625159  0.893369  0.000000
  0.000000  0.000000  0.000000


  -1.428449  -0.848174  0.000000
  -0.848174  0.576814  0.000000
  0.000000  0.000000  0.000000


  -2.011630  0.199907  0.000000
  0.199907  0.022928  0.000000
  0.000000  0.000000  0.000000


  -2.131813  0.170872  0.000000
  0.170872  0.231181  0.000000
  0.000000  0.000000  0.000000


  -1.527565  -0.888412  0.000000
  -0.888412  0.530640  0.000000
  0.000000  0.000000  0.000000


  -2.056210  0.205758  0.000000
  0.205758  0.014649  0.000000
  0.000000  0.000000  0.000000


  -1.546660  -0.894509  0.000000
  -0.894509  0.529896  0.000000
  0.000000  0.000000  0.000000


  -2.295786  -0.074589  0.000000
  -0.074589  -0.312578  0.000000
  0.000000  0.000000  0.000000


  -2.345454  -0.081911  0.000000
  -0.081911  -0.207939  0.000000
  0.000000  0.000000  0.000000


  -2.186419  -0.079551  0.000000
  -0.079551  -0.280146  0.000000
  0.000000  0.000000  0.000000


  -1.393566  -0.878682  0.000000
  -0.878682  0.547257  0.000000
  0.000000  0.000000  0.000000


  -2.051578  0.150695  0.000000
  0.150695  0.291833  0.000000
  0.000000  0.000000  0.000000


  -2.169252  -0.113739  0.000000
  -0.113739  -0.138956  0.000000
  0.000000  0.000000  0.000000


  -1.394622  -0.890900  0.000000
  -0.890900  0.639805  0.000000
  0.000000  0.000000  0.000000


  -1.995024  0.146160  0.000000
  0.146160  0.316320  0.000000
  0.000000  0.000000  0.000000


  -2.164391  -0.122629  0.000000
  -0.122629  -0.051546  0.000000
  0.000000  0.000000  0.000000


  -1.349825  -0.884573  0.000000
  -0.884573  0.696954  0.000000
  0.000000  0.000000  0.000000


  -0.610251  -1.666464  0.000000
  -1.666464  1.215347  0.000000
  0.000000  0.000000  0.000000


  -2.978058  1.019799  0.000000
  1.019799  -0.769604  0.000000
  0.000000  0.000000  0.000000


  -3.158067  0.777802  0.000000
  0.777802  -1.079158  0.000000
  0.000000  0.000000  0.000000


  -3.792380  1.884383  0.000000
  1.884383  -1.636390  0.000000
  0.000000  0.000000  0.000000


  -3.830585  1.886643  0.000000
  1.886643  -1.525429  0.000000
  0.000000  0.000000  0.000000


  -1.230659  -0.617104  0.000000
  -0.617104  1.158350  0.000000
  0.000000  0.000000  0.000000


  -0.626057  -1.660823  0.000000
  -1.660823  1.586761  0.000000
  0.000000  0.000000  0.000000


  -1.148499  -0.653189  0.000000
  -0.653189  1.219980  0.000000
  0.000000  0.000000  0.000000


  -2.011769  0.176117  0.000000
  0.176117  -0.035184  0.000000
  0.000000  0.000000  0.000000


  -2.716721  0.947599  0.000000
  0.947599  -0.556253  0.000000
  0.000000  0.000000  0.000000


  -1.182070  -0.596124  0.000000
  -0.596124  0.768480  0.000000
  0.000000  0.000000  0.000000


  -0.588311  -1.723092  0.000000
  -1.723092  1.231668  0.000000
  0.000000  0.000000  0.000000


  -0.267123  -1.415804  0.000000
  -1.415804  1.525644  0.000000
  0.000000  0.000000  0.000000


  -1.137652  -0.664031  0.000000
  -0.664031  0.782033  0.000000
  0.000000  0.000000  0.000000


  0.375703  -2.517900  0.000000
  -2.517900  1.905204  0.000000
  0.000000  0.000000  0.000000


  0.723279  -2.205155  0.000000
  -2.205155  2.182420  0.000000
  0.000000  0.000000  0.000000


  -0.241831  -1.464250  0.000000
  -1.464250  1.517724  0.000000
  0.000000  0.000000  0.000000


  -3.011932  1.036290  0.000000
  1.036290  -0.769151  0.000000
  0.000000  0.000000  0.000000


  -2.788337  0.952776  0.000000
  0.952776  -0.600389  0.000000
  0.000000  0.000000  0.000000


  -2.943255  0.706443  0.000000
  0.706443  -0.943979  0.000000
  0.000000  0.000000  0.000000


  -3.560228  1.790437  0.000000
  1.790437  -1.489114  0.000000
  0.000000  0.000000  0.000000


  -3.550833  1.760007  0.000000
  1.760007  -1.371108  0.000000
  0.000000  0.000000  0.000000


  -1.970313  0.088793  0.000000
  0.088793  0.452482  0.000000
  0.000000  0.000000  0.000000


  -2.888669  0.963058  0.000000
  0.963058  -0.613334  0.000000
  0.000000  0.000000  0.000000


  -3.044238  0.722167  0.000000
  0.722167  -0.957577  0.000000
  0.000000  0.000000  0.000000


  -3.660780  1.844785  0.000000
  1.844785  -1.560060  0.000000
  0.000000  0.000000  0.000000


  -3.804965  1.602133  0.000000
  1.602133  -1.926714  0.000000
  0.000000  0.000000  0.000000


  -4.595216  2.720609  0.000000
  2.720609  -2.371286  0.000000
  0.000000  0.000000  0.000000


  -4.533804  2.669932  0.000000
  2.669932  -2.256681  0.000000
  0.000000  0.000000  0.000000


  -3.943699  1.628801  0.000000
  1.628801  -1.954389  0.000000
  0.000000  0.000000  0.000000


  -0.504136  -1.766599  0.000000
  -1.766599  1.169276  0.000000
  0.000000  0.000000  0.000000


  -1.153053  -0.650434  0.000000
  -0.650434  0.728535  0.000000
  0.000000  0.000000  0.000000


  -0.498946  -1.778504  0.000000
  -1.778504  1.132323  0.000000
  0.000000  0.000000  0.000000


  -1.388189  -0.945922  0.000000
  -0.945922  0.359478  0.000000
  0.000000  0.000000  0.000000


  -3.249941  0.754600  0.000000
  0.754600  -1.100742  0.000000
  0.000000  0.000000  0.000000


  -3.879784  1.899350  0.000000
  1.899350  -1.627519  0.000000
  0.000000  0.000000  0.000000


  -3.299432  0.726112  0.000000
  0.726112  -1.058926  0.000000
  0.000000  0.000000  0.000000


  -4.092284  1.628919  0.000000
  1.628919  -1.964579  0.000000
  0.000000  0.000000  0.000000


  -2.983971  1.004983  0.000000
  1.004983  -0.815430  0.000000
  0.000000  0.000000  0.000000


  -3.889902  1.866945  0.000000
  1.866945  -1.623530  0.000000
  0.000000  0.000000  0.000000


  -4.770841  2.757024  0.000000
  2.757024  -2.402041  0.000000
  0.000000  0.000000  0.000000


  -1.468102  -0.968396  0.000000
  -0.968396  0.512089  0.000000
  0.000000  0.000000  0.000000


  -2.102158  0.128633  0.000000
  0.128633  -0.002840  0.000000
  0.000000  0.000000  0.000000


  -2.321452  -0.126488  0.000000
  -0.126488  -0.299056  0.000000
  0.000000  0.000000  0.000000


  -2.930395  0.995023  0.000000
  0.995023  -0.871153  0.000000
  0.000000  0.000000  0.000000


  -2.447192  -0.167581  0.000000
  -0.167581  -0.236815  0.000000
  0.000000  0.000000  0.000000


  -3.304803  0.703881  0.000000
  0.703881  -1.067411  0.000000
  0.000000  0.000000  0.000000


  -3.893047  1.844686  0.000000
  1.844686  -1.641242  0.000000
  0.000000  0.000000  0.000000


  -2.018458  0.135086  0.000000
  0.135086  -0.039195  0.000000
  0.000000  0.000000  0.000000


  -1.400679  -1.038995  0.000000
  -1.038995  0.439254  0.000000
  0.000000  0.000000  0.000000


  -1.022955  -0.730348  0.000000
  -0.730348  0.687038  0.000000
  0.000000  0.000000  0.000000


  -1.990063  0.042775  0.000000
  0.042775  0.020272  0.000000
  0.000000  0.000000  0.000000


  -0.387612  -1.879293  0.000000
  -1.879293  1.142427  0.000000
  0.000000  0.000000  0.000000


  0.044562  -1.559033  0.000000
  -1.559033  1.356173  0.000000
  0.000000  0.000000  0.000000


  -0.985730  -0.793035  0.000000
  -0.793035  0.723485  0.000000
  0.000000  0.000000  0.000000


  -3.323083  0.617766  0.000000
  0.617766  -0.975299  0.000000
  0.000000  0.000000  0.000000


  -4.233803  1.565572  0.000000
  1.565572  -1.855235  0.000000
  0.000000  0.000000  0.000000


  -1.295794  -1.105194  0.000000
  -1.105194  0.415444  0.000000
  0.000000  0.000000  0.000000


  -1.975393  0.027072  0.000000
  0.027072  -0.019766  0.000000
  0.000000  0.000000  0.000000


  -2.320789  -0.267102  0.000000
  -0.267102  -0.254584  0.000000
  0.000000  0.000000  0.000000


  -2.844089  0.868941  0.000000
  0.868941  -0.813877  0.000000
  0.000000  0.000000  0.000000


  -2.333483  -0.292199  0.000000
  -0.292199  -0.280223  0.000000
  0.000000  0.000000  0.000000


  -3.209576  0.573969  0.000000
  0.573969  -1.021935  0.000000
  0.000000  0.000000  0.000000


  -2.888049  0.851425  0.000000
  0.851425  -0.781056  0.000000
  0.000000  0.000000  0.000000


  -2.314877  -0.342845  0.000000
  -0.342845  -0.233134  0.000000
  0.000000  0.000000  0.000000


  -3.184536  0.552125  0.000000
  0.552125  -1.075207  0.000000
  0.000000  0.000000  0.000000


  -1.774428  -0.031072  0.000000
  -0.031072  -0.130405  0.000000
  0.000000  0.000000  0.000000


  -2.812111  0.775208  0.000000
  0.775208  -0.799625  0.000000
  0.000000  0.000000  0.000000


  -4.012408  1.726726  0.000000
  1.726726  -1.502646  0.000000
  0.000000  0.000000  0.000000


  -3.992880  1.731909  0.000000
  1.731909  -1.513724  0.000000
  0.000000  0.000000  0.000000


  -4.205078  1.471728  0.000000
  1.471728  -1.830906  0.000000
  0.000000  0.000000  0.000000


  -4.967475  2.644413  0.000000
  2.644413  -2.323886  0.000000
  0.000000  0.000000  0.000000


  -4.999943  2.642822  0.000000
  2.642822  -2.239853  0.000000
  0.000000  0.000000  0.000000


  -2.840922  0.909186  0.000000
  0.909186  -0.859475  0.000000
  0.000000  0.000000  0.000000


  0.604008  -2.691699  0.000000
  -2.691699  1.899173  0.000000
  0.000000  0.000000  0.000000


  -1.279687  -1.134669  0.000000
  -1.134669  0.479197  0.000000
  0.000000  0.000000  0.000000


  -0.858375  -0.850227  0.000000
  -0.850227  0.622390  0.000000
  0.000000  0.000000  0.000000


  -0.300097  -1.928965  0.000000
  -1.928965  1.206070  0.000000
  0.000000  0.000000  0.000000


  -0.182099  -2.026269  0.000000
  -2.026269  1.158808  0.000000
  0.000000  0.000000  0.000000


  0.105342  -1.638971  0.000000
  -1.638971  1.367309  0.000000
  0.000000  0.000000  0.000000


  0.858679  -2.783282  0.000000
  -2.783282  1.786106  0.000000
  0.000000  0.000000  0.000000


  -3.921719  1.753614  0.000000
  1.753614  -1.570083  0.000000
  0.000000  0.000000  0.000000


  -4.113929  1.506900  0.000000
  1.506900  -1.874853  0.000000
  0.000000  0.000000  0.000000


  -4.960740  2.684716  0.000000
  2.684716  -2.384557  0.000000
  0.000000  0.000000  0.000000


  -5.211858  2.473329  0.000000
  2.473329  -2.560327  0.000000
  0.000000  0.000000  0.000000


  -5.636173  3.543248  0.000000
  3.543248  -3.293063  0.000000
  0.000000  0.000000  0.000000


  -5.859248  3.670130  0.000000
  3.670130  -3.225869  0.000000
  0.000000  0.000000  0.000000


  -5.281381  2.355339  0.000000
  2.355339  -2.526943  0.000000
  0.000000  0.000000  0.000000


  -5.789013  3.544237  0.000000
  3.544237  -3.145829  0.000000
  0.000000  0.000000  0.000000


  -5.380117  2.344224  0.000000
  2.344224  -2.487123  0.000000
  0.000000  0.000000  0.000000


  -5.948900  3.533274  0.000000
  3.533274  -3.044732  0.000000
  0.000000  0.000000  0.000000


  -6.117085  3.270537  0.000000
  3.270537  -3.342003  0.000000
  0.000000  0.000000  0.000000


  -5.430850  2.302118  0.000000
  2.302118  -2.382631  0.000000
  0.000000  0.000000  0.000000


  -6.199053  3.266328  0.000000
  3.266328  -3.327159  0.000000
  0.000000  0.000000  0.000000


  -7.025035  4.481195  0.000000
  4.481195  -3.818085  0.000000
  0.000000  0.000000  0.000000


  -7.165535  4.251362  0.000000
  4.251362  -4.161765  0.000000
  0.000000  0.000000  0.000000


  -6.923728  4.461909  0.000000
  4.461909  -3.775072  0.000000
  0.000000  0.000000  0.000000


  -8.093331  5.502886  0.000000
  5.502886  -4.648405  0.000000
  0.000000  0.000000  0.000000


  -8.013831  5.492122  0.000000
  5.492122  -4.642299  0.000000
  0.000000  0.000000  0.000000


  -6.112044  3.283097  0.000000
  3.283097  -3.390353  0.000000
  0.000000  0.000000  0.000000


  -6.783315  4.560205  0.000000
  4.560205  -3.957430  0.000000
  0.000000  0.000000  0.000000


  -7.083742  4.321684  0.000000
  4.321684  -4.143998  0.000000
  0.000000  0.000000  0.000000


  -6.042832  3.412349  0.000000
  3.412349  -3.561089  0.000000
  0.000000  0.000000  0.000000


  -6.697939  4.628065  0.000000
  4.628065  -4.104820  0.000000
  0.000000  0.000000  0.000000


  -6.961089  4.385309  0.000000
  4.385309  -4.328251  0.000000
  0.000000  0.000000  0.000000


  -5.899424  3.428892  0.000000
  3.428892  -3.635251  0.000000
  0.000000  0.000000  0.000000


  -7.820172  5.497384  0.000000
  5.497384  -4.874164  0.000000
  0.000000  0.000000  0.000000


  -7.969515  5.342556  0.000000
  5.342556  -5.034502  0.000000
  0.000000  0.000000  0.000000


  -6.977551  4.229511  0.000000
  4.229511  -4.247852  0.000000
  0.000000  0.000000  0.000000


  -8.729889  6.576068  0.000000
  6.576068  -5.789492  0.000000
  0.000000  0.000000  0.000000


  -8.729581  6.552043  0.000000
  6.552043  -5.657247  0.000000
  0.000000  0.000000  0.000000


  -7.607037  5.586912  0.000000
  5.586912  -4.982489  0.000000
  0.000000  0.000000  0.000000


  -8.884798  6.392489  0.000000
  6.392489  -5.994534  0.000000
  0.000000  0.000000  0.000000


  -7.816351  5.342337  0.000000
  5.342337  -5.256155  0.000000
  0.000000  0.000000  0.000000


  -8.442621  6.555418  0.000000
  6.555418  -5.847119  0.000000
  0.000000  0.000000  0.000000


  -8.750551  6.330247  0.000000
  6.330247  -6.000529  0.000000
  0.000000  0.000000  0.000000


  -7.683175  5.361342  0.000000
  5.361342  -5.383473  0.000000
  0.000000  0.000000  0.000000


  -8.270914  5.222969  0.000000
  5.222969  -4.918846  0.000000
  0.000000  0.000000  0.000000


  -8.873364  6.454497  0.000000
  6.454497  -5.516611  0.000000
  0.000000  0.000000  0.000000


  -8.404748  5.233306  0.000000
  5.233306  -4.860934  0.000000
  0.000000  0.000000  0.000000


  -9.086654  6.462924  0.000000
  6.462924  -5.396728  0.000000
  0.000000  0.000000  0.000000


  -9.073811  6.234484  0.000000
  6.234484  -5.757040  0.000000
  0.000000  0.000000  0.000000


  -8.512123  5.201460  0.000000
  5.201460  -4.687309  0.000000
  0.000000  0.000000  0.000000


  -9.291735  6.219557  0.000000
  6.219557  -5.685520  0.000000
  0.000000  0.000000  0.000000


  -10.196543  7.516635  0.000000
  7.516635  -6.230125  0.000000
  0.000000  0.000000  0.000000


  -10.096007  7.402044  0.000000
  7.402044  -6.641230  0.000000
  0.000000  0.000000  0.000000


  -11.645361  8.927061  0.000000
  8.927061  -7.394689  0.000000
  0.000000  0.000000  0.000000


  -11.447782  9.150789  0.000000
  9.150789  -7.787346  0.000000
  0.000000  0.000000  0.000000


  -10.123896  7.817523  0.000000
  7.817523  -6.676179  0.000000
  0.000000  0.000000  0.000000


  -10.084104  7.658207  0.000000
  7.658207  -6.919138  0.000000
  0.000000  0.000000  0.000000


  -8.703060  6.365780  0.000000
  6.365780  -6.105662  0.000000
  0.000000  0.000000  0.000000


  -5.103640  2.491442  0.000000
  2.491442  -2.728942  0.000000
  0.000000  0.000000  0.000000


  -9.536841  7.503633  0.000000
  7.503633  -6.678770  0.000000
  0.000000  0.000000  0.000000


  -9.529930  7.377710  0.000000
  7.377710  -7.028449  0.000000
  0.000000  0.000000  0.000000


  -11.168380  8.877699  0.000000
  8.877699  -7.703449  0.000000
  0.000000  0.000000  0.000000


  -10.893848  9.564352  0.000000
  9.564352  -8.809049  0.000000
  0.000000  0.000000  0.000000


  -10.383064  8.901730  0.000000
  8.901730  -8.324062  0.000000
  0.000000  0.000000  0.000000


  -11.323364  9.246707  0.000000
  9.246707  -8.026530  0.000000
  0.000000  0.000000  0.000000


  -8.035353  5.437132  0.000000
  5.437132  -4.662700  0.000000
  0.000000  0.000000  0.000000


  -5.876916  3.426220  0.000000
  3.426220  -3.012987  0.000000
  0.000000  0.000000  0.000000


  -8.413572  6.598637  0.000000
  6.598637  -5.925818  0.000000
  0.000000  0.000000  0.000000


  -10.463541  7.540338  0.000000
  7.540338  -6.142944  0.000000
  0.000000  0.000000  0.000000


  -4.895335  2.592382  0.000000
  2.592382  -2.292038  0.000000
  0.000000  0.000000  0.000000


  -4.276891  1.432231  0.000000
  1.432231  -1.830114  0.000000
  0.000000  0.000000  0.000000


  -4.325438  1.311488  0.000000
  1.311488  -1.629372  0.000000
  0.000000  0.000000  0.000000


  -3.862556  1.594146  0.000000
  1.594146  -1.483433  0.000000
  0.000000  0.000000  0.000000


  -4.841301  2.430515  0.000000
  2.430515  -2.145413  0.000000
  0.000000  0.000000  0.000000


  -3.090277  0.334968  0.000000
  0.334968  -0.952213  0.000000
  0.000000  0.000000  0.000000


  -2.714735  0.645919  0.000000
  0.645919  -0.711300  0.000000
  0.000000  0.000000  0.000000


  -3.893223  1.510419  0.000000
  1.510419  -1.326612  0.000000
  0.000000  0.000000  0.000000


  -4.196201  1.201775  0.000000
  1.201775  -1.627308  0.000000
  0.000000  0.000000  0.000000


  -4.909060  2.410860  0.000000
  2.410860  -2.095286  0.000000
  0.000000  0.000000  0.000000


  -4.224234  1.146568  0.000000
  1.146568  -1.537370  0.000000
  0.000000  0.000000  0.000000


  -5.198401  2.117893  0.000000
  2.117893  -2.380015  0.000000
  0.000000  0.000000  0.000000


  -5.306559  2.123674  0.000000
  2.123674  -2.269066  0.000000
  0.000000  0.000000  0.000000


  -6.055211  3.322664  0.000000
  3.322664  -2.864659  0.000000
  0.000000  0.000000  0.000000


  -6.208805  3.117462  0.000000
  3.117462  -3.137545  0.000000
  0.000000  0.000000  0.000000


  -7.163882  4.333942  0.000000
  4.333942  -3.609825  0.000000
  0.000000  0.000000  0.000000


  -7.229650  4.338562  0.000000
  4.338562  -3.567865  0.000000
  0.000000  0.000000  0.000000


  -7.450143  4.093489  0.000000
  4.093489  -3.840254  0.000000
  0.000000  0.000000  0.000000


  -8.090718  5.342835  0.000000
  5.342835  -4.506125  0.000000
  0.000000  0.000000  0.000000


  -7.583460  4.033860  0.000000
  4.033860  -3.748178  0.000000
  0.000000  0.000000  0.000000


  -8.226344  5.283312  0.000000
  5.283312  -4.328374  0.000000
  0.000000  0.000000  0.000000


  -8.549828  5.074954  0.000000
  5.074954  -4.564786  0.000000
  0.000000  0.000000  0.000000


  -7.658368  3.959218  0.000000
  3.959218  -3.561672  0.000000
  0.000000  0.000000  0.000000


  -8.569493  5.020544  0.000000
  5.020544  -4.476543  0.000000
  0.000000  0.000000  0.000000


  -6.407380  3.029418  0.000000
  3.029418  -3.031437  0.000000
  0.000000  0.000000  0.000000


  -8.184880  5.139090  0.000000
  5.139090  -4.207940  0.000000
  0.000000  0.000000  0.000000


  -9.458940  6.371566  0.000000
  6.371566  -5.166127  0.000000
  0.000000  0.000000  0.000000


  -9.684986  6.196570  0.000000
  6.196570  -5.277536  0.000000
  0.000000  0.000000  0.000000


  -10.524672  7.393842  0.000000
  7.393842  -5.971600  0.000000
  0.000000  0.000000  0.000000


  -10.807170  7.828635  0.000000
  7.828635  -6.366966  0.000000
  0.000000  0.000000  0.000000


  -11.013815  7.655458  0.000000
  7.655458  -6.508209  0.000000
  0.000000  0.000000  0.000000


  -7.091231  4.232871  0.000000
  4.232871  -3.531815  0.000000
  0.000000  0.000000  0.000000


  -6.395704  2.850472  0.000000
  2.850472  -2.812880  0.000000
  0.000000  0.000000  0.000000


  -5.806775  3.134782  0.000000
  3.134782  -2.794570  0.000000
  0.000000  0.000000  0.000000


  -7.067897  4.051177  0.000000
  4.051177  -3.320123  0.000000
  0.000000  0.000000  0.000000


  -9.533852  6.262402  0.000000
  6.262402  -4.942978  0.000000
  0.000000  0.000000  0.000000


  -9.381993  7.794626  0.000000
  7.794626  -7.121454  0.000000
  0.000000  0.000000  0.000000


  -9.325882  6.476166  0.000000
  6.476166  -5.332542  0.000000
  0.000000  0.000000  0.000000


  -9.475417  6.286576  0.000000
  6.286576  -5.564170  0.000000
  0.000000  0.000000  0.000000


  -7.139430  4.459927  0.000000
  4.459927  -3.770454  0.000000
  0.000000  0.000000  0.000000


  -6.222297  3.151643  0.000000
  3.151643  -3.222776  0.000000
  0.000000  0.000000  0.000000


  -7.351243  4.243706  0.000000
  4.243706  -3.991151  0.000000
  0.000000  0.000000  0.000000


  -7.545420  5.603195  0.000000
  5.603195  -5.009942  0.000000
  0.000000  0.000000  0.000000


  -6.760112  4.344537  0.000000
  4.344537  -4.455122  0.000000
  0.000000  0.000000  0.000000


  -7.354853  5.552391  0.000000
  5.552391  -5.067521  0.000000
  0.000000  0.000000  0.000000


  -6.590534  4.593053  0.000000
  4.593053  -4.110238  0.000000
  0.000000  0.000000  0.000000


  -5.785341  3.406227  0.000000
  3.406227  -3.618904  0.000000
  0.000000  0.000000  0.000000


  -2.194365  -0.480704  0.000000
  -0.480704  -0.165337  0.000000
  0.000000  0.000000  0.000000


  -4.891372  2.272428  0.000000
  2.272428  -2.033618  0.000000
  0.000000  0.000000  0.000000


  -4.007166  1.031325  0.000000
  1.031325  -1.574649  0.000000
  0.000000  0.000000  0.000000


  -5.289216  2.026565  0.000000
  2.026565  -2.146298  0.000000
  0.000000  0.000000  0.000000


  -3.699175  1.332954  0.000000
  1.332954  -1.285391  0.000000
  0.000000  0.000000  0.000000


  -4.950301  2.175821  0.000000
  2.175821  -1.815190  0.000000
  0.000000  0.000000  0.000000


  -6.081957  3.323090  0.000000
  3.323090  -2.776351  0.000000
  0.000000  0.000000  0.000000


  -3.002445  0.147316  0.000000
  0.147316  -0.798138  0.000000
  0.000000  0.000000  0.000000


  -2.888526  0.062310  0.000000
  0.062310  -0.780458  0.000000
  0.000000  0.000000  0.000000


  -3.984866  0.996511  0.000000
  0.996511  -1.599076  0.000000
  0.000000  0.000000  0.000000


  -5.232838  1.861793  0.000000
  1.861793  -2.141533  0.000000
  0.000000  0.000000  0.000000


  -5.957014  3.112530  0.000000
  3.112530  -2.606094  0.000000
  0.000000  0.000000  0.000000


  -5.346219  1.846832  0.000000
  1.846832  -2.029657  0.000000
  0.000000  0.000000  0.000000


  -6.350575  2.781654  0.000000
  2.781654  -2.784987  0.000000
  0.000000  0.000000  0.000000


  -7.122523  4.019596  0.000000
  4.019596  -3.276060  0.000000
  0.000000  0.000000  0.000000


  -6.447679  2.662480  0.000000
  2.662480  -2.582062  0.000000
  0.000000  0.000000  0.000000


  -7.466098  3.726887  0.000000
  3.726887  -3.474156  0.000000
  0.000000  0.000000  0.000000


  -4.847421  2.169234  0.000000
  2.169234  -1.865588  0.000000
  0.000000  0.000000  0.000000


  -4.006856  0.863742  0.000000
  0.863742  -1.447056  0.000000
  0.000000  0.000000  0.000000


  -3.493628  1.183788  0.000000
  1.183788  -1.316841  0.000000
  0.000000  0.000000  0.000000


  -4.814187  1.993564  0.000000
  1.993564  -1.717219  0.000000
  0.000000  0.000000  0.000000


  -5.801576  2.974414  0.000000
  2.974414  -2.586734  0.000000
  0.000000  0.000000  0.000000


  -5.153394  1.658396  0.000000
  1.658396  -1.999858  0.000000
  0.000000  0.000000  0.000000


  -5.944770  2.920683  0.000000
  2.920683  -2.409493  0.000000
  0.000000  0.000000  0.000000


  -5.226081  1.609187  0.000000
  1.609187  -1.874440  0.000000
  0.000000  0.000000  0.000000


  -6.188104  2.630616  0.000000
  2.630616  -2.745608  0.000000
  0.000000  0.000000  0.000000


  -2.851669  0.014833  0.000000
  0.014833  -0.692762  0.000000
  0.000000  0.000000  0.000000


  -2.474561  0.309806  0.000000
  0.309806  -0.540459  0.000000
  0.000000  0.000000  0.000000


  -1.674803  -0.856317  0.000000
  -0.856317  -0.112042  0.000000
  0.000000  0.000000  0.000000


  -1.504139  -0.888055  0.000000
  -0.888055  -0.213002  0.000000
  0.000000  0.000000  0.000000


  -3.864337  0.755969  0.000000
  0.755969  -1.424385  0.000000
  0.000000  0.000000  0.000000


  -5.780589  2.760586  0.000000
  2.760586  -2.370453  0.000000
  0.000000  0.000000  0.000000


  -7.251782  3.852191  0.000000
  3.852191  -3.137940  0.000000
  0.000000  0.000000  0.000000


  -7.478149  3.647185  0.000000
  3.647185  -3.303328  0.000000
  0.000000  0.000000  0.000000


  -8.413946  4.902984  0.000000
  4.902984  -3.859387  0.000000
  0.000000  0.000000  0.000000


  -8.540618  4.949045  0.000000
  4.949045  -3.858220  0.000000
  0.000000  0.000000  0.000000


  -8.719366  4.732497  0.000000
  4.732497  -4.120535  0.000000
  0.000000  0.000000  0.000000


  -9.726015  6.008567  0.000000
  6.008567  -4.590071  0.000000
  0.000000  0.000000  0.000000


  -9.742314  6.052724  0.000000
  6.052724  -4.600392  0.000000
  0.000000  0.000000  0.000000


  -7.684136  3.475352  0.000000
  3.475352  -3.104536  0.000000
  0.000000  0.000000  0.000000


  -8.870243  4.605879  0.000000
  4.605879  -3.968582  0.000000
  0.000000  0.000000  0.000000


  -2.816663  -0.119803  0.000000
  -0.119803  -0.625991  0.000000
  0.000000  0.000000  0.000000


  -4.681954  1.951771  0.000000
  1.951771  -1.737981  0.000000
  0.000000  0.000000  0.000000


  -3.819356  0.632776  0.000000
  0.632776  -1.301636  0.000000
  0.000000  0.000000  0.000000


  -3.274123  0.975918  0.000000
  0.975918  -1.180921  0.000000
  0.000000  0.000000  0.000000


  -4.595114  1.788355  0.000000
  1.788355  -1.613120  0.000000
  0.000000  0.000000  0.000000


  -7.143326  3.797753  0.000000
  3.797753  -3.003551  0.000000
  0.000000  0.000000  0.000000


  -6.247184  2.413959  0.000000
  2.413959  -2.572688  0.000000
  0.000000  0.000000  0.000000


  -7.256941  3.639681  0.000000
  3.639681  -2.789657  0.000000
  0.000000  0.000000  0.000000


  -6.188958  2.373696  0.000000
  2.373696  -2.549191  0.000000
  0.000000  0.000000  0.000000


  -7.355543  3.393569  0.000000
  3.393569  -3.299696  0.000000
  0.000000  0.000000  0.000000


  -8.389822  4.985598  0.000000
  4.985598  -3.992722  0.000000
  0.000000  0.000000  0.000000


  -8.437577  4.825251  0.000000
  4.825251  -4.327640  0.000000
  0.000000  0.000000  0.000000


  -7.560683  3.741418  0.000000
  3.741418  -3.403644  0.000000
  0.000000  0.000000  0.000000


  -9.700461  6.083964  0.000000
  6.083964  -4.834997  0.000000
  0.000000  0.000000  0.000000


  -9.900269  5.941785  0.000000
  5.941785  -4.924669  0.000000
  0.000000  0.000000  0.000000


  -10.420525  7.103231  0.000000
  7.103231  -5.767483  0.000000
  0.000000  0.000000  0.000000


  -10.730130  7.296406  0.000000
  7.296406  -5.749706  0.000000
  0.000000  0.000000  0.000000


  -10.101535  5.761635  0.000000
  5.761635  -4.752979  0.000000
  0.000000  0.000000  0.000000


  -10.641724  7.025504  0.000000
  7.025504  -5.385281  0.000000
  0.000000  0.000000  0.000000


  -10.989485  7.079838  0.000000
  7.079838  -5.909361  0.000000
  0.000000  0.000000  0.000000


  -9.805469  5.992459  0.000000
  5.992459  -5.205731  0.000000
  0.000000  0.000000  0.000000


  -10.252243  5.701296  0.000000
  5.701296  -4.596023  0.000000
  0.000000  0.000000  0.000000


  -10.911600  6.938914  0.000000
  6.938914  -5.125764  0.000000
  0.000000  0.000000  0.000000


  -11.086279  6.794667  0.000000
  6.794667  -5.261412  0.000000
  0.000000  0.000000  0.000000


  -10.337161  5.542295  0.000000
  5.542295  -4.344155  0.000000
  0.000000  0.000000  0.000000


  -11.276496  6.630424  0.000000
  6.630424  -5.318132  0.000000
  0.000000  0.000000  0.000000


  -11.989459  8.422298  0.000000
  8.422298  -6.499485  0.000000
  0.000000  0.000000  0.000000


  -11.903125  8.465992  0.000000
  8.465992  -6.658636  0.000000
  0.000000  0.000000  0.000000


  -11.186790  6.892125  0.000000
  6.892125  -5.595855  0.000000
  0.000000  0.000000  0.000000


  -12.370577  8.005766  0.000000
  8.005766  -5.740116  0.000000
  0.000000  0.000000  0.000000


  -12.362087  7.839300  0.000000
  7.839300  -6.262240  0.000000
  0.000000  0.000000  0.000000


  -11.835830  8.233492  0.000000
  8.233492  -6.380939  0.000000
  0.000000  0.000000  0.000000


  -13.282772  8.128290  0.000000
  8.128290  -5.638154  0.000000
  0.000000  0.000000  0.000000


  -9.604854  5.797660  0.000000
  5.797660  -4.460173  0.000000
  0.000000  0.000000  0.000000


  -8.888502  4.392691  0.000000
  4.392691  -3.679053  0.000000
  0.000000  0.000000  0.000000


  -8.493181  4.646488  0.000000
  4.646488  -3.651037  0.000000
  0.000000  0.000000  0.000000


  -9.490548  5.633204  0.000000
  5.633204  -4.342100  0.000000
  0.000000  0.000000  0.000000


  -9.084527  4.252081  0.000000
  4.252081  -3.461204  0.000000
  0.000000  0.000000  0.000000


  -10.087546  5.315721  0.000000
  5.315721  -4.278063  0.000000
  0.000000  0.000000  0.000000


  -11.082594  6.799179  0.000000
  6.799179  -5.025700  0.000000
  0.000000  0.000000  0.000000


  -11.403890  6.597616  0.000000
  6.597616  -5.090307  0.000000
  0.000000  0.000000  0.000000


  -12.316039  7.928407  0.000000
  7.928407  -5.812956  0.000000
  0.000000  0.000000  0.000000


  -12.615002  7.996561  0.000000
  7.996561  -5.721690  0.000000
  0.000000  0.000000  0.000000


  -11.000665  6.559790  0.000000
  6.559790  -4.765711  0.000000
  0.000000  0.000000  0.000000


  -2.521068  -0.353364  0.000000
  -0.353364  -0.547936  0.000000
  0.000000  0.000000  0.000000


  -5.017238  1.426661  0.000000
  1.426661  -1.836979  0.000000
  0.000000  0.000000  0.000000


  -5.830065  2.714044  0.000000
  2.714044  -2.285008  0.000000
  0.000000  0.000000  0.000000


  -11.590881  6.253281  0.000000
  6.253281  -4.711128  0.000000
  0.000000  0.000000  0.000000


  -12.260242  7.521226  0.000000
  7.521226  -5.303637  0.000000
  0.000000  0.000000  0.000000


  -11.571678  6.026900  0.000000
  6.026900  -4.483209  0.000000
  0.000000  0.000000  0.000000


  -12.878455  7.213553  0.000000
  7.213553  -5.223458  0.000000
  0.000000  0.000000  0.000000


  -2.613070  -0.242714  0.000000
  -0.242714  -0.601668  0.000000
  0.000000  0.000000  0.000000


  -2.191024  0.106862  0.000000
  0.106862  -0.395619  0.000000
  0.000000  0.000000  0.000000


  -3.650386  0.508316  0.000000
  0.508316  -1.263030  0.000000
  0.000000  0.000000  0.000000


  -12.942604  7.765836  0.000000
  7.765836  -5.702922  0.000000
  0.000000  0.000000  0.000000


  -2.458399  0.401026  0.000000
  0.401026  -0.567189  0.000000
  0.000000  0.000000  0.000000


  -1.786304  -0.768399  0.000000
  -0.768399  -0.127753  0.000000
  0.000000  0.000000  0.000000


  -1.258095  -0.505527  0.000000
  -0.505527  0.139407  0.000000
  0.000000  0.000000  0.000000


  -1.252361  -0.573439  0.000000
  -0.573439  0.179038  0.000000
  0.000000  0.000000  0.000000


  -11.860474  7.284198  0.000000
  7.284198  -5.163790  0.000000
  0.000000  0.000000  0.000000


  -5.783073  3.677887  0.000000
  3.677887  -3.220232  0.000000
  0.000000  0.000000  0.000000


  -5.075562  2.501457  0.000000
  2.501457  -2.738661  0.000000
  0.000000  0.000000  0.000000


  -5.614842  3.668268  0.000000
  3.668268  -3.247337  0.000000
  0.000000  0.000000  0.000000


  -4.930097  2.490761  0.000000
  2.490761  -2.794946  0.000000
  0.000000  0.000000  0.000000


  -5.455841  3.671873  0.000000
  3.671873  -3.384787  0.000000
  0.000000  0.000000  0.000000


  -5.817834  3.429191  0.000000
  3.429191  -3.528586  0.000000
  0.000000  0.000000  0.000000


  -4.831656  2.514555  0.000000
  2.514555  -2.796481  0.000000
  0.000000  0.000000  0.000000


  -4.685343  2.773610  0.000000
  2.773610  -2.424555  0.000000
  0.000000  0.000000  0.000000


  -4.033134  1.610864  0.000000
  1.610864  -1.942913  0.000000
  0.000000  0.000000  0.000000


  -5.393260  3.665528  0.000000
  3.665528  -3.390910  0.000000
  0.000000  0.000000  0.000000


  -3.063151  0.278891  0.000000
  0.278891  -0.861868  0.000000
  0.000000  0.000000  0.000000


  -2.654823  0.574009  0.000000
  0.574009  -0.694006  0.000000
  0.000000  0.000000  0.000000


  -2.036082  -0.578673  0.000000
  -0.578673  -0.137525  0.000000
  0.000000  0.000000  0.000000


  -1.579210  -0.264655  0.000000
  -0.264655  0.019226  0.000000
  0.000000  0.000000  0.000000


  -1.907235  -0.687598  0.000000
  -0.687598  -0.135854  0.000000
  0.000000  0.000000  0.000000


  -1.013989  -1.412154  0.000000
  -1.412154  0.567769  0.000000
  0.000000  0.000000  0.000000


  -0.885149  -1.484723  0.000000
  -1.484723  0.550680  0.000000
  0.000000  0.000000  0.000000


  -10.751483  6.337510  0.000000
  6.337510  -4.628838  0.000000
  0.000000  0.000000  0.000000


  -13.886055  9.135170  0.000000
  9.135170  -6.529533  0.000000
  0.000000  0.000000  0.000000


  0.418631  -2.605657  0.000000
  -2.605657  1.933590  0.000000
  0.000000  0.000000  0.000000


  -2.299250  0.231404  0.000000
  0.231404  -0.446342  0.000000
  0.000000  0.000000  0.000000


  -1.444069  -1.044937  0.000000
  -1.044937  -0.073927  0.000000
  0.000000  0.000000  0.000000


  -0.822024  -0.704824  0.000000
  -0.704824  0.003785  0.000000
  0.000000  0.000000  0.000000


  -0.314798  -1.772603  0.000000
  -1.772603  0.602037  0.000000
  0.000000  0.000000  0.000000


  0.124775  -1.484568  0.000000
  -1.484568  0.692916  0.000000
  0.000000  0.000000  0.000000


  0.620445  -2.568493  0.000000
  -2.568493  1.257372  0.000000
  0.000000  0.000000  0.000000


  1.030018  -2.667740  0.000000
  -2.667740  1.097347  0.000000
  0.000000  0.000000  0.000000


  0.054922  -1.334973  0.000000
  -1.334973  0.748727  0.000000
  0.000000  0.000000  0.000000


  0.621202  -2.504729  0.000000
  -2.504729  1.127750  0.000000
  0.000000  0.000000  0.000000


  -0.110442  -1.311489  0.000000
  -1.311489  0.744770  0.000000
  0.000000  0.000000  0.000000


  0.962848  -2.153291  0.000000
  -2.153291  1.459722  0.000000
  0.000000  0.000000  0.000000


  1.334909  -2.197492  0.000000
  -2.197492  1.275909  0.000000
  0.000000  0.000000  0.000000


  1.417027  -2.296438  0.000000
  -2.296438  1.419556  0.000000
  0.000000  0.000000  0.000000


  0.193425  -1.552036  0.000000
  -1.552036  0.845970  0.000000
  0.000000  0.000000  0.000000


  -0.215717  -1.933933  0.000000
  -1.933933  0.561147  0.000000
  0.000000  0.000000  0.000000


  -0.802981  -0.731381  0.000000
  -0.731381  0.132065  0.000000
  0.000000  0.000000  0.000000


  -0.128528  -1.993631  0.000000
  -1.993631  0.635869  0.000000
  0.000000  0.000000  0.000000


  -1.254919  -1.112397  0.000000
  -1.112397  -0.083207  0.000000
  0.000000  0.000000  0.000000


  -1.930275  0.017954  0.000000
  0.017954  -0.427579  0.000000
  0.000000  0.000000  0.000000


  -1.168171  -1.284956  0.000000
  -1.284956  0.055863  0.000000
  0.000000  0.000000  0.000000


  -0.516652  -0.912298  0.000000
  -0.912298  0.144103  0.000000
  0.000000  0.000000  0.000000


  -1.754514  -0.114451  0.000000
  -0.114451  -0.369251  0.000000
  0.000000  0.000000  0.000000


  0.192873  -2.192077  0.000000
  -2.192077  0.703724  0.000000
  0.000000  0.000000  0.000000


  0.605380  -1.626413  0.000000
  -1.626413  0.637025  0.000000
  0.000000  0.000000  0.000000


  0.958170  -1.795144  0.000000
  -1.795144  0.714652  0.000000
  0.000000  0.000000  0.000000


  -0.250912  -1.053814  0.000000
  -1.053814  0.215067  0.000000
  0.000000  0.000000  0.000000


  -0.593011  -1.661152  0.000000
  -1.661152  0.554057  0.000000
  0.000000  0.000000  0.000000


  -1.377221  -0.420469  0.000000
  -0.420469  0.131877  0.000000
  0.000000  0.000000  0.000000


  -0.728305  -1.586523  0.000000
  -1.586523  0.512121  0.000000
  0.000000  0.000000  0.000000


  1.789411  -3.268918  0.000000
  -3.268918  1.745873  0.000000
  0.000000  0.000000  0.000000


  -2.313252  -0.492818  0.000000
  -0.492818  -0.485389  0.000000
  0.000000  0.000000  0.000000


  0.482154  -2.444436  0.000000
  -2.444436  1.180820  0.000000
  0.000000  0.000000  0.000000


  1.885810  -3.292702  0.000000
  -3.292702  1.818144  0.000000
  0.000000  0.000000  0.000000


  2.289907  -2.987499  0.000000
  -2.987499  1.984109  0.000000
  0.000000  0.000000  0.000000


  2.793259  -4.053933  0.000000
  -4.053933  2.494574  0.000000
  0.000000  0.000000  0.000000


  3.169695  -4.110767  0.000000
  -4.110767  2.278367  0.000000
  0.000000  0.000000  0.000000


  2.203506  -2.887177  0.000000
  -2.887177  2.038126  0.000000
  0.000000  0.000000  0.000000


  2.710632  -4.012773  0.000000
  -4.012773  2.453830  0.000000
  0.000000  0.000000  0.000000


  2.076161  -2.844442  0.000000
  -2.844442  2.020375  0.000000
  0.000000  0.000000  0.000000


  3.095398  -3.649748  0.000000
  -3.649748  2.751081  0.000000
  0.000000  0.000000  0.000000


  3.439371  -3.678935  0.000000
  -3.678935  2.567544  0.000000
  0.000000  0.000000  0.000000


  2.582558  -3.015477  0.000000
  -3.015477  2.028631  0.000000
  0.000000  0.000000  0.000000


  3.255111  -4.236273  0.000000
  -4.236273  2.423382  0.000000
  0.000000  0.000000  0.000000


  3.932035  -3.856291  0.000000
  -3.856291  2.502480  0.000000
  0.000000  0.000000  0.000000


  2.922575  -3.123991  0.000000
  -3.123991  1.928753  0.000000
  0.000000  0.000000  0.000000


  2.464541  -3.899545  0.000000
  -3.899545  2.497012  0.000000
  0.000000  0.000000  0.000000


  3.961350  -4.741213  0.000000
  -4.741213  3.054027  0.000000
  0.000000  0.000000  0.000000


  4.388204  -4.410784  0.000000
  -4.410784  3.245497  0.000000
  0.000000  0.000000  0.000000


  4.887915  -5.476146  0.000000
  -5.476146  3.723667  0.000000
  0.000000  0.000000  0.000000


  5.248602  -5.544404  0.000000
  -5.544404  3.569951  0.000000
  0.000000  0.000000  0.000000


  4.267494  -4.323847  0.000000
  -4.323847  3.234729  0.000000
  0.000000  0.000000  0.000000


  5.505271  -5.079815  0.000000
  -5.079815  3.858667  0.000000
  0.000000  0.000000  0.000000


  5.637807  -5.171329  0.000000
  -5.171329  3.894761  0.000000
  0.000000  0.000000  0.000000


  4.525761  -4.455884  0.000000
  -4.455884  3.298147  0.000000
  0.000000  0.000000  0.000000


  3.599977  -3.717278  0.000000
  -3.717278  2.584717  0.000000
  0.000000  0.000000  0.000000


  4.106641  -4.852573  0.000000
  -4.852573  2.979143  0.000000
  0.000000  0.000000  0.000000


  4.249757  -4.887069  0.000000
  -4.887069  3.033247  0.000000
  0.000000  0.000000  0.000000


  4.959555  -4.523326  0.000000
  -4.523326  3.056134  0.000000
  0.000000  0.000000  0.000000


  5.385208  -5.564221  0.000000
  -5.564221  3.619269  0.000000
  0.000000  0.000000  0.000000


  5.865090  -5.236877  0.000000
  -5.236877  3.744997  0.000000
  0.000000  0.000000  0.000000


  6.459725  -6.288467  0.000000
  -6.288467  4.261371  0.000000
  0.000000  0.000000  0.000000


  6.664585  -6.285344  0.000000
  -6.285344  4.042749  0.000000
  0.000000  0.000000  0.000000


  6.870021  -5.968600  0.000000
  -5.968600  4.440435  0.000000
  0.000000  0.000000  0.000000


  5.562361  -5.682667  0.000000
  -5.682667  3.622421  0.000000
  0.000000  0.000000  0.000000


  7.191303  -5.865385  0.000000
  -5.865385  4.272206  0.000000
  0.000000  0.000000  0.000000


  6.215571  -5.267260  0.000000
  -5.267260  3.793388  0.000000
  0.000000  0.000000  0.000000


  6.974562  -6.429080  0.000000
  -6.429080  4.053857  0.000000
  0.000000  0.000000  0.000000


  7.638143  -6.031761  0.000000
  -6.031761  4.170648  0.000000
  0.000000  0.000000  0.000000


  6.488179  -5.370571  0.000000
  -5.370571  3.758415  0.000000
  0.000000  0.000000  0.000000


  8.082434  -7.086091  0.000000
  -7.086091  4.703340  0.000000
  0.000000  0.000000  0.000000


  8.317490  -6.806088  0.000000
  -6.806088  5.036015  0.000000
  0.000000  0.000000  0.000000


  8.271501  -7.184226  0.000000
  -7.184226  4.705678  0.000000
  0.000000  0.000000  0.000000


  7.336476  -6.520715  0.000000
  -6.520715  4.015296  0.000000
  0.000000  0.000000  0.000000


  1.559122  -3.198255  0.000000
  -3.198255  1.833110  0.000000
  0.000000  0.000000  0.000000


  0.703081  -2.021401  0.000000
  -2.021401  1.512746  0.000000
  0.000000  0.000000  0.000000


  0.418590  -2.351684  0.000000
  -2.351684  1.129345  0.000000
  0.000000  0.000000  0.000000


  1.461015  -3.106611  0.000000
  -3.106611  1.788365  0.000000
  0.000000  0.000000  0.000000


  -0.463430  -1.148608  0.000000
  -1.148608  0.788496  0.000000
  0.000000  0.000000  0.000000


  3.705523  -4.700698  0.000000
  -4.700698  3.054455  0.000000
  0.000000  0.000000  0.000000


  2.961168  -3.523525  0.000000
  -3.523525  2.733723  0.000000
  0.000000  0.000000  0.000000


  3.579012  -4.619095  0.000000
  -4.619095  3.028839  0.000000
  0.000000  0.000000  0.000000


  6.072809  -5.781762  0.000000
  -5.781762  3.391987  0.000000
  0.000000  0.000000  0.000000


  2.756299  -3.540514  0.000000
  -3.540514  2.863249  0.000000
  0.000000  0.000000  0.000000


  3.872930  -4.263181  0.000000
  -4.263181  3.457126  0.000000
  0.000000  0.000000  0.000000


  -13.710594  8.521548  0.000000
  8.521548  -6.144634  0.000000
  0.000000  0.000000  0.000000


  -0.915452  -1.441731  0.000000
  -1.441731  0.161350  0.000000
  0.000000  0.000000  0.000000


  -3.765257  1.452927  0.000000
  1.452927  -1.390422  0.000000
  0.000000  0.000000  0.000000


  -6.434041  4.572556  0.000000
  4.572556  -4.220246  0.000000
  0.000000  0.000000  0.000000


  -6.556567  4.369204  0.000000
  4.369204  -4.499095  0.000000
  0.000000  0.000000  0.000000


  -7.299384  5.550191  0.000000
  5.550191  -5.034354  0.000000
  0.000000  0.000000  0.000000


  -7.302079  5.341600  0.000000
  5.341600  -5.484093  0.000000
  0.000000  0.000000  0.000000


  -6.332650  4.349550  0.000000
  4.349550  -4.651457  0.000000
  0.000000  0.000000  0.000000


  -11.032228  7.164826  0.000000
  7.164826  -6.008744  0.000000
  0.000000  0.000000  0.000000


  -11.629044  8.821662  0.000000
  8.821662  -7.412186  0.000000
  0.000000  0.000000  0.000000


  -7.482244  5.313744  0.000000
  5.313744  -5.412360  0.000000
  0.000000  0.000000  0.000000


  -8.146590  6.540951  0.000000
  6.540951  -5.992921  0.000000
  0.000000  0.000000  0.000000


  -8.336346  6.299485  0.000000
  6.299485  -6.282403  0.000000
  0.000000  0.000000  0.000000


  -10.141983  5.082076  0.000000
  5.082076  -3.928908  0.000000
  0.000000  0.000000  0.000000


  -9.477592  5.348690  0.000000
  5.348690  -4.071410  0.000000
  0.000000  0.000000  0.000000


  -8.275483  4.578245  0.000000
  4.578245  -3.480746  0.000000
  0.000000  0.000000  0.000000


  -7.551598  3.140903  0.000000
  3.140903  -2.944231  0.000000
  0.000000  0.000000  0.000000


  -8.618920  3.867748  0.000000
  3.867748  -3.479518  0.000000
  0.000000  0.000000  0.000000


  -6.977772  3.478400  0.000000
  3.478400  -2.772521  0.000000
  0.000000  0.000000  0.000000


  -6.055702  2.132920  0.000000
  2.132920  -2.353057  0.000000
  0.000000  0.000000  0.000000


  -7.982788  4.289192  0.000000
  4.289192  -3.302195  0.000000
  0.000000  0.000000  0.000000


  -5.427178  2.454411  0.000000
  2.454411  -2.303104  0.000000
  0.000000  0.000000  0.000000


  -6.975918  3.264166  0.000000
  3.264166  -2.478512  0.000000
  0.000000  0.000000  0.000000


  -7.249150  2.947457  0.000000
  2.947457  -2.789231  0.000000
  0.000000  0.000000  0.000000


  -8.794530  4.053084  0.000000
  4.053084  -2.893159  0.000000
  0.000000  0.000000  0.000000


  -7.286304  3.072894  0.000000
  3.072894  -2.944737  0.000000
  0.000000  0.000000  0.000000


  -8.453519  4.827575  0.000000
  4.827575  -3.909904  0.000000
  0.000000  0.000000  0.000000


  -5.061368  1.376216  0.000000
  1.376216  -1.630677  0.000000
  0.000000  0.000000  0.000000


  -4.502929  1.682156  0.000000
  1.682156  -1.596254  0.000000
  0.000000  0.000000  0.000000


  -3.440032  0.383115  0.000000
  0.383115  -1.222648  0.000000
  0.000000  0.000000  0.000000


  -3.008851  0.722274  0.000000
  0.722274  -1.034399  0.000000
  0.000000  0.000000  0.000000


  -4.515319  1.530725  0.000000
  1.530725  -1.353388  0.000000
  0.000000  0.000000  0.000000


  -4.808561  1.190059  0.000000
  1.190059  -1.702342  0.000000
  0.000000  0.000000  0.000000


  -5.643651  2.472242  0.000000
  2.472242  -2.068621  0.000000
  0.000000  0.000000  0.000000


  -4.897510  1.097358  0.000000
  1.097358  -1.515824  0.000000
  0.000000  0.000000  0.000000


  -5.947807  2.146860  0.000000
  2.146860  -2.351980  0.000000
  0.000000  0.000000  0.000000


  -7.035457  3.372960  0.000000
  3.372960  -2.585802  0.000000
  0.000000  0.000000  0.000000


  -6.043768  1.914199  0.000000
  1.914199  -2.105491  0.000000
  0.000000  0.000000  0.000000


  -5.458527  2.272865  0.000000
  2.272865  -2.018359  0.000000
  0.000000  0.000000  0.000000


  -6.894695  3.094576  0.000000
  3.094576  -2.408068  0.000000
  0.000000  0.000000  0.000000


  -4.617472  0.876534  0.000000
  0.876534  -1.423578  0.000000
  0.000000  0.000000  0.000000


  -8.434908  4.250590  0.000000
  4.250590  -3.064736  0.000000
  0.000000  0.000000  0.000000


  -4.037511  1.461408  0.000000
  1.461408  -1.643491  0.000000
  0.000000  0.000000  0.000000


  -3.428876  0.345721  0.000000
  0.345721  -1.074570  0.000000
  0.000000  0.000000  0.000000


  -2.962861  0.649269  0.000000
  0.649269  -1.012879  0.000000
  0.000000  0.000000  0.000000


  -2.119267  -0.571566  0.000000
  -0.571566  -0.431116  0.000000
  0.000000  0.000000  0.000000


  -1.849650  -0.615174  0.000000
  -0.615174  -0.785891  0.000000
  0.000000  0.000000  0.000000


  -1.718116  -0.251591  0.000000
  -0.251591  -0.298313  0.000000
  0.000000  0.000000  0.000000


  -5.874820  1.733711  0.000000
  1.733711  -1.996747  0.000000
  0.000000  0.000000  0.000000


  -7.259205  2.740893  0.000000
  2.740893  -2.706130  0.000000
  0.000000  0.000000  0.000000


  -8.233318  4.003243  0.000000
  4.003243  -3.023771  0.000000
  0.000000  0.000000  0.000000


  -1.529904  -0.217508  0.000000
  -0.217508  -0.302208  0.000000
  0.000000  0.000000  0.000000


  -3.135379  0.502473  0.000000
  0.502473  -0.444171  0.000000
  0.000000  0.000000  0.000000


  -9.236547  7.628971  0.000000
  7.628971  -6.986712  0.000000
  0.000000  0.000000  0.000000


  -3.820803  1.286455  0.000000
  1.286455  -1.479597  0.000000
  0.000000  0.000000  0.000000


  -3.350060  0.120136  0.000000
  0.120136  -1.105760  0.000000
  0.000000  0.000000  0.000000


  -3.416057  0.018046  0.000000
  0.018046  -0.694861  0.000000
  0.000000  0.000000  0.000000


  -1.826923  0.098271  0.000000
  0.098271  -1.331721  0.000000
  0.000000  0.000000  0.000000


  -3.189829  0.932109  0.000000
  0.932109  -1.524012  0.000000
  0.000000  0.000000  0.000000


  -2.846511  -0.367682  0.000000
  -0.367682  -0.550612  0.000000
  0.000000  0.000000  0.000000


  -4.336306  0.542007  0.000000
  0.542007  -1.243991  0.000000
  0.000000  0.000000  0.000000


  -8.980849  7.646215  0.000000
  7.646215  -7.010273  0.000000
  0.000000  0.000000  0.000000


  -5.370511  2.092099  0.000000
  2.092099  -1.895099  0.000000
  0.000000  0.000000  0.000000


  -4.783577  2.787918  0.000000
  2.787918  -2.457620  0.000000
  0.000000  0.000000  0.000000


  -4.186587  1.581849  0.000000
  1.581849  -1.896858  0.000000
  0.000000  0.000000  0.000000


  -4.871795  2.761161  0.000000
  2.761161  -2.416513  0.000000
  0.000000  0.000000  0.000000


  1.144156  -2.463938  0.000000
  -2.463938  2.143008  0.000000
  0.000000  0.000000  0.000000


  -7.046004  5.387013  0.000000
  5.387013  -4.946923  0.000000
  0.000000  0.000000  0.000000


  -8.762535  3.637850  0.000000
  3.637850  -3.068104  0.000000
  0.000000  0.000000  0.000000


  1.302006  -3.300733  0.000000
  -3.300733  2.658221  0.000000
  0.000000  0.000000  0.000000


  -3.606138  1.511218  0.000000
  1.511218  -1.838548  0.000000
  0.000000  0.000000  0.000000


  -6.287118  4.576389  0.000000
  4.576389  -4.166085  0.000000
  0.000000  0.000000  0.000000


  -5.687503  3.397833  0.000000
  3.397833  -3.632856  0.000000
  0.000000  0.000000  0.000000


  -5.998885  4.516410  0.000000
  4.516410  -4.355729  0.000000
  0.000000  0.000000  0.000000


  -6.285056  4.262076  0.000000
  4.262076  -4.574484  0.000000
  0.000000  0.000000  0.000000


  -6.864294  5.460160  0.000000
  5.460160  -5.138894  0.000000
  0.000000  0.000000  0.000000


  -5.663145  3.462309  0.000000
  3.462309  -3.651382  0.000000
  0.000000  0.000000  0.000000


  -7.004901  5.222101  0.000000
  5.222101  -5.428797  0.000000
  0.000000  0.000000  0.000000


  -6.063270  4.339398  0.000000
  4.339398  -4.780530  0.000000
  0.000000  0.000000  0.000000


  -7.422816  6.378563  0.000000
  6.378563  -6.325712  0.000000
  0.000000  0.000000  0.000000


  -7.378171  6.381490  0.000000
  6.381490  -6.353792  0.000000
  0.000000  0.000000  0.000000


  -6.731428  5.355464  0.000000
  5.355464  -5.063414  0.000000
  0.000000  0.000000  0.000000


  -6.027733  4.553860  0.000000
  4.553860  -4.295356  0.000000
  0.000000  0.000000  0.000000


  -5.374590  3.365726  0.000000
  3.365726  -3.718061  0.000000
  0.000000  0.000000  0.000000


  -5.749759  4.442232  0.000000
  4.442232  -4.357728  0.000000
  0.000000  0.000000  0.000000


  -5.252752  3.581519  0.000000
  3.581519  -3.375468  0.000000
  0.000000  0.000000  0.000000


  -5.325922  3.695000  0.000000
  3.695000  -3.501768  0.000000
  0.000000  0.000000  0.000000


  -5.907485  4.195241  0.000000
  4.195241  -4.656707  0.000000
  0.000000  0.000000  0.000000


  -6.467515  5.321621  0.000000
  5.321621  -5.177058  0.000000
  0.000000  0.000000  0.000000


  -6.581198  5.105528  0.000000
  5.105528  -5.464518  0.000000
  0.000000  0.000000  0.000000


  -5.713634  4.212817  0.000000
  4.212817  -4.773692  0.000000
  0.000000  0.000000  0.000000


  -5.273676  3.355900  0.000000
  3.355900  -3.685219  0.000000
  0.000000  0.000000  0.000000


  -7.262380  6.289586  0.000000
  6.289586  -6.246106  0.000000
  0.000000  0.000000  0.000000


  -7.162107  6.109813  0.000000
  6.109813  -6.790550  0.000000
  0.000000  0.000000  0.000000


  -7.017366  6.255508  0.000000
  6.255508  -6.336861  0.000000
  0.000000  0.000000  0.000000


  -6.330228  5.213107  0.000000
  5.213107  -5.102254  0.000000
  0.000000  0.000000  0.000000


  -5.679920  4.435349  0.000000
  4.435349  -4.292257  0.000000
  0.000000  0.000000  0.000000


  -5.066257  3.299873  0.000000
  3.299873  -3.735166  0.000000
  0.000000  0.000000  0.000000


  -5.462750  4.319822  0.000000
  4.319822  -4.288732  0.000000
  0.000000  0.000000  0.000000


  -5.081074  3.512044  0.000000
  3.512044  -3.232083  0.000000
  0.000000  0.000000  0.000000


  -5.547270  4.068210  0.000000
  4.068210  -4.660285  0.000000
  0.000000  0.000000  0.000000


  -6.086956  5.149993  0.000000
  5.149993  -5.157978  0.000000
  0.000000  0.000000  0.000000


  -6.156555  4.920189  0.000000
  4.920189  -5.513668  0.000000
  0.000000  0.000000  0.000000


  -5.353163  4.032189  0.000000
  4.032189  -4.712961  0.000000
  0.000000  0.000000  0.000000


  -4.929279  3.213170  0.000000
  3.213170  -3.642742  0.000000
  0.000000  0.000000  0.000000


  -4.212115  2.365662  0.000000
  2.365662  -2.781583  0.000000
  0.000000  0.000000  0.000000


  -4.370273  2.412723  0.000000
  2.412723  -2.672511  0.000000
  0.000000  0.000000  0.000000


  -4.220618  2.615683  0.000000
  2.615683  -2.445599  0.000000
  0.000000  0.000000  0.000000


  -6.822466  6.090251  0.000000
  6.090251  -6.235952  0.000000
  0.000000  0.000000  0.000000


  -6.704988  5.911300  0.000000
  5.911300  -6.772576  0.000000
  0.000000  0.000000  0.000000


  -6.628325  6.067320  0.000000
  6.067320  -6.293541  0.000000
  0.000000  0.000000  0.000000


  -5.935828  5.025504  0.000000
  5.025504  -5.053149  0.000000
  0.000000  0.000000  0.000000


  -5.356634  4.256540  0.000000
  4.256540  -4.198924  0.000000
  0.000000  0.000000  0.000000


  -4.710466  3.126115  0.000000
  3.126115  -3.645337  0.000000
  0.000000  0.000000  0.000000


  -5.137153  4.139947  0.000000
  4.139947  -4.161699  0.000000
  0.000000  0.000000  0.000000


  -4.737510  3.345917  0.000000
  3.345917  -3.128576  0.000000
  0.000000  0.000000  0.000000


  -5.168140  3.891195  0.000000
  3.891195  -4.583934  0.000000
  0.000000  0.000000  0.000000


  -5.686179  4.926763  0.000000
  4.926763  -5.062682  0.000000
  0.000000  0.000000  0.000000


  -5.697462  4.695235  0.000000
  4.695235  -5.480580  0.000000
  0.000000  0.000000  0.000000


  -4.963427  3.811220  0.000000
  3.811220  -4.589979  0.000000
  0.000000  0.000000  0.000000


  -4.584631  3.050569  0.000000
  3.050569  -3.553570  0.000000
  0.000000  0.000000  0.000000


  -4.106777  2.327570  0.000000
  2.327570  -2.715267  0.000000
  0.000000  0.000000  0.000000


  -4.040676  2.567683  0.000000
  2.567683  -2.328235  0.000000
  0.000000  0.000000  0.000000


  -6.176196  5.794264  0.000000
  5.794264  -6.174784  0.000000
  0.000000  0.000000  0.000000


  -5.015006  4.036504  0.000000
  4.036504  -4.033996  0.000000
  0.000000  0.000000  0.000000


  -4.372557  2.928457  0.000000
  2.928457  -3.490760  0.000000
  0.000000  0.000000  0.000000


  -4.810132  3.911690  0.000000
  3.911690  -3.959681  0.000000
  0.000000  0.000000  0.000000


  -4.395944  3.157597  0.000000
  3.157597  -2.972638  0.000000
  0.000000  0.000000  0.000000


  -4.832831  3.672847  0.000000
  3.672847  -4.382933  0.000000
  0.000000  0.000000  0.000000


  -4.203006  2.822127  0.000000
  2.822127  -3.374828  0.000000
  0.000000  0.000000  0.000000


  -3.670530  2.074297  0.000000
  2.074297  -2.495880  0.000000
  0.000000  0.000000  0.000000


  -3.835129  2.215770  0.000000
  2.215770  -2.662428  0.000000
  0.000000  0.000000  0.000000


  -3.999186  2.253513  0.000000
  2.253513  -2.668309  0.000000
  0.000000  0.000000  0.000000


  -4.546439  3.304294  0.000000
  3.304294  -3.108884  0.000000
  0.000000  0.000000  0.000000


  -3.927805  2.502799  0.000000
  2.502799  -2.261309  0.000000
  0.000000  0.000000  0.000000


  -6.348839  5.832467  0.000000
  5.832467  -6.143982  0.000000
  0.000000  0.000000  0.000000


  -6.209506  5.645825  0.000000
  5.645825  -6.704318  0.000000
  0.000000  0.000000  0.000000


  -5.504551  4.781713  0.000000
  4.781713  -5.007619  0.000000
  0.000000  0.000000  0.000000


  -5.369676  4.584475  0.000000
  4.584475  -5.524129  0.000000
  0.000000  0.000000  0.000000


  -5.914232  5.542680  0.000000
  5.542680  -5.948028  0.000000
  0.000000  0.000000  0.000000


  -7.144293  5.169421  0.000000
  5.169421  -5.324595  0.000000
  0.000000  0.000000  0.000000


  -7.914208  6.377651  0.000000
  6.377651  -5.971737  0.000000
  0.000000  0.000000  0.000000


  -7.756598  6.372514  0.000000
  6.372514  -6.375394  0.000000
  0.000000  0.000000  0.000000


  -6.721366  5.148508  0.000000
  5.148508  -5.548327  0.000000
  0.000000  0.000000  0.000000


  -6.854494  6.805381  0.000000
  6.805381  -7.494033  0.000000
  0.000000  0.000000  0.000000


  -7.741887  6.180516  0.000000
  6.180516  -6.437998  0.000000
  0.000000  0.000000  0.000000


  -7.761618  7.252834  0.000000
  7.252834  -7.321184  0.000000
  0.000000  0.000000  0.000000


  -7.825364  6.194443  0.000000
  6.194443  -6.370907  0.000000
  0.000000  0.000000  0.000000


  -8.160268  7.494043  0.000000
  7.494043  -7.306447  0.000000
  0.000000  0.000000  0.000000


  -3.463487  1.473557  0.000000
  1.473557  -1.691192  0.000000
  0.000000  0.000000  0.000000


  -3.314738  1.718193  0.000000
  1.718193  -1.364086  0.000000
  0.000000  0.000000  0.000000


  -2.804383  0.663861  0.000000
  0.663861  -0.749760  0.000000
  0.000000  0.000000  0.000000


  -2.848211  0.685734  0.000000
  0.685734  -0.823396  0.000000
  0.000000  0.000000  0.000000


  0.581617  -1.989350  0.000000
  -1.989350  1.624871  0.000000
  0.000000  0.000000  0.000000


  -7.380452  7.065019  0.000000
  7.065019  -7.527458  0.000000
  0.000000  0.000000  0.000000


  -5.130185  4.422688  0.000000
  4.422688  -5.483142  0.000000
  0.000000  0.000000  0.000000


  -7.826313  7.131182  0.000000
  7.131182  -7.185082  0.000000
  0.000000  0.000000  0.000000


  -7.774152  6.932393  0.000000
  6.932393  -7.586580  0.000000
  0.000000  0.000000  0.000000


  -9.081945  8.472180  0.000000
  8.472180  -8.482473  0.000000
  0.000000  0.000000  0.000000


  -8.575010  8.813566  0.000000
  8.813566  -9.640566  0.000000
  0.000000  0.000000  0.000000


  -8.334989  8.331409  0.000000
  8.331409  -9.139023  0.000000
  0.000000  0.000000  0.000000


  -9.125281  8.745739  0.000000
  8.745739  -8.846984  0.000000
  0.000000  0.000000  0.000000


  -3.570274  1.481411  0.000000
  1.481411  -1.704382  0.000000
  0.000000  0.000000  0.000000


  -0.639002  -1.658171  0.000000
  -1.658171  1.699347  0.000000
  0.000000  0.000000  0.000000


  0.217012  -1.694750  0.000000
  -1.694750  1.412462  0.000000
  0.000000  0.000000  0.000000


  0.940888  -2.842090  0.000000
  -2.842090  1.729008  0.000000
  0.000000  0.000000  0.000000


  1.333909  -2.482926  0.000000
  -2.482926  2.047040  0.000000
  0.000000  0.000000  0.000000


  0.702859  -1.806945  0.000000
  -1.806945  1.353632  0.000000
  0.000000  0.000000  0.000000


  0.967522  -3.097877  0.000000
  -3.097877  1.923065  0.000000
  0.000000  0.000000  0.000000


  1.875569  -3.585889  0.000000
  -3.585889  2.535738  0.000000
  0.000000  0.000000  0.000000


  2.311670  -3.258326  0.000000
  -3.258326  2.724598  0.000000
  0.000000  0.000000  0.000000


  2.829271  -4.309433  0.000000
  -4.309433  3.178150  0.000000
  0.000000  0.000000  0.000000


  3.049132  -4.389254  0.000000
  -4.389254  3.078930  0.000000
  0.000000  0.000000  0.000000


  2.067427  -3.720940  0.000000
  -3.720940  2.464463  0.000000
  0.000000  0.000000  0.000000


  -12.567438  8.216774  0.000000
  8.216774  -6.279810  0.000000
  0.000000  0.000000  0.000000


  -9.194802  3.819723  0.000000
  3.819723  -3.181327  0.000000
  0.000000  0.000000  0.000000


  -0.653379  -1.654270  0.000000
  -1.654270  1.443483  0.000000
  0.000000  0.000000  0.000000


  -1.198562  -0.587137  0.000000
  -0.587137  0.948665  0.000000
  0.000000  0.000000  0.000000


  -3.677515  1.533226  0.000000
  1.533226  -1.886645  0.000000
  0.000000  0.000000  0.000000


  -4.323183  2.619562  0.000000
  2.619562  -2.320718  0.000000
  0.000000  0.000000  0.000000


  -4.473289  2.397492  0.000000
  2.397492  -2.604417  0.000000
  0.000000  0.000000  0.000000


  -5.721271  5.337283  0.000000
  5.337283  -6.597545  0.000000
  0.000000  0.000000  0.000000


  -1.334873  -0.935600  0.000000
  -0.935600  0.842681  0.000000
  0.000000  0.000000  0.000000


  -1.921259  0.083259  0.000000
  0.083259  0.509074  0.000000
  0.000000  0.000000  0.000000


  -1.946272  -0.162471  0.000000
  -0.162471  0.036894  0.000000
  0.000000  0.000000  0.000000


  -1.276210  -0.936399  0.000000
  -0.936399  0.903212  0.000000
  0.000000  0.000000  0.000000


  -1.870478  0.021461  0.000000
  0.021461  0.650639  0.000000
  0.000000  0.000000  0.000000


  -1.162623  -0.671960  0.000000
  -0.671960  1.357808  0.000000
  0.000000  0.000000  0.000000


  -0.568357  -1.699523  0.000000
  -1.699523  1.800450  0.000000
  0.000000  0.000000  0.000000


  -1.092810  -0.720509  0.000000
  -0.720509  1.444309  0.000000
  0.000000  0.000000  0.000000


  -0.452293  -1.434967  0.000000
  -1.434967  2.247400  0.000000
  0.000000  0.000000  0.000000


  -1.239658  -0.988958  0.000000
  -0.988958  1.050331  0.000000
  0.000000  0.000000  0.000000


  -1.806712  -0.005338  0.000000
  -0.005338  0.730725  0.000000
  0.000000  0.000000  0.000000


  -1.798885  -0.235308  0.000000
  -0.235308  0.248883  0.000000
  0.000000  0.000000  0.000000


  -1.251372  -1.021417  0.000000
  -1.021417  1.141085  0.000000
  0.000000  0.000000  0.000000


  -0.512898  -1.753014  0.000000
  -1.753014  1.920829  0.000000
  0.000000  0.000000  0.000000


  0.166808  -2.428923  0.000000
  -2.428923  2.644019  0.000000
  0.000000  0.000000  0.000000


  0.153646  -2.378114  0.000000
  -2.378114  2.484633  0.000000
  0.000000  0.000000  0.000000


  -3.131721  0.751002  0.000000
  0.751002  -1.087148  0.000000
  0.000000  0.000000  0.000000


  1.202936  -3.244748  0.000000
  -3.244748  2.711075  0.000000
  0.000000  0.000000  0.000000


  1.594248  -2.933192  0.000000
  -2.933192  2.937139  0.000000
  0.000000  0.000000  0.000000


  2.228026  -4.001161  0.000000
  -4.001161  3.265223  0.000000
  0.000000  0.000000  0.000000


  1.681590  -2.968771  0.000000
  -2.968771  2.940340  0.000000
  0.000000  0.000000  0.000000


  2.297556  -4.057699  0.000000
  -4.057699  3.270906  0.000000
  0.000000  0.000000  0.000000


  2.709830  -3.726856  0.000000
  -3.726856  3.524628  0.000000
  0.000000  0.000000  0.000000


  1.766567  -3.021900  0.000000
  -3.021900  2.881859  0.000000
  0.000000  0.000000  0.000000


  3.328022  -4.808816  0.000000
  -4.808816  3.904625  0.000000
  0.000000  0.000000  0.000000


  3.765842  -4.465334  0.000000
  -4.465334  4.151361  0.000000
  0.000000  0.000000  0.000000


  2.848541  -3.782894  0.000000
  -3.782894  3.497440  0.000000
  0.000000  0.000000  0.000000


  4.374855  -5.551811  0.000000
  -5.551811  4.554841  0.000000
  0.000000  0.000000  0.000000


  2.458467  -4.125755  0.000000
  -4.125755  3.221213  0.000000
  0.000000  0.000000  0.000000


  1.516009  -3.331461  0.000000
  -3.331461  2.500639  0.000000
  0.000000  0.000000  0.000000


  4.856895  -5.200847  0.000000
  -5.200847  4.765388  0.000000
  0.000000  0.000000  0.000000


  3.924715  -4.516920  0.000000
  -4.516920  4.104364  0.000000
  0.000000  0.000000  0.000000


  1.871405  -3.062164  0.000000
  -3.062164  2.813576  0.000000
  0.000000  0.000000  0.000000


  3.510852  -4.864734  0.000000
  -4.864734  3.836098  0.000000
  0.000000  0.000000  0.000000


  -7.235565  6.966992  0.000000
  6.966992  -7.271619  0.000000
  0.000000  0.000000  0.000000


  -6.637268  5.859688  0.000000
  5.859688  -6.664883  0.000000
  0.000000  0.000000  0.000000


  -7.023172  6.879514  0.000000
  6.879514  -7.904588  0.000000
  0.000000  0.000000  0.000000


  1.896170  -3.454251  0.000000
  -3.454251  4.135667  0.000000
  0.000000  0.000000  0.000000


  2.472232  -4.466121  0.000000
  -4.466121  4.407577  0.000000
  0.000000  0.000000  0.000000


  -2.877846  0.684571  0.000000
  0.684571  -0.923370  0.000000
  0.000000  0.000000  0.000000


  -3.470227  1.770347  0.000000
  1.770347  -1.404983  0.000000
  0.000000  0.000000  0.000000


  -3.623854  1.527137  0.000000
  1.527137  -1.716840  0.000000
  0.000000  0.000000  0.000000


  -0.684112  -0.897268  0.000000
  -0.897268  0.686706  0.000000
  0.000000  0.000000  0.000000


  -0.073877  -2.186663  0.000000
  -2.186663  1.236142  0.000000
  0.000000  0.000000  0.000000


  1.819634  -2.754227  0.000000
  -2.754227  2.094820  0.000000
  0.000000  0.000000  0.000000


  2.381683  -3.918133  0.000000
  -3.918133  2.504480  0.000000
  0.000000  0.000000  0.000000


  1.722096  -2.680101  0.000000
  -2.680101  2.101773  0.000000
  0.000000  0.000000  0.000000


  3.062340  -4.691761  0.000000
  -4.691761  3.999283  0.000000
  0.000000  0.000000  0.000000


  2.516725  -3.663855  0.000000
  -3.663855  3.659231  0.000000
  0.000000  0.000000  0.000000


  2.416303  -3.620681  0.000000
  -3.620681  3.707034  0.000000
  0.000000  0.000000  0.000000


  0.437165  -2.541204  0.000000
  -2.541204  1.899853  0.000000
  0.000000  0.000000  0.000000


  0.732029  -2.255146  0.000000
  -2.255146  2.166392  0.000000
  0.000000  0.000000  0.000000


  -0.104608  -1.459629  0.000000
  -1.459629  1.364315  0.000000
  0.000000  0.000000  0.000000


  -11.941360  8.353602  0.000000
  8.353602  -6.860549  0.000000
  0.000000  0.000000  0.000000


  -13.511928  9.640208  0.000000
  9.640208  -7.019597  0.000000
  0.000000  0.000000  0.000000


  -7.180628  2.654453  0.000000
  2.654453  -2.767413  0.000000
  0.000000  0.000000  0.000000


  5.460995  -5.767417  0.000000
  -5.767417  5.542075  0.000000
  0.000000  0.000000  0.000000


  -1.480928  0.095058  0.000000
  0.095058  -0.871776  0.000000
  0.000000  0.000000  0.000000


  5.203414  -6.181603  0.000000
  -6.181603  5.239278  0.000000
  0.000000  0.000000  0.000000


  4.616647  -5.112287  0.000000
  -5.112287  4.844571  0.000000
  0.000000  0.000000  0.000000


  5.691133  -5.832970  0.000000
  -5.832970  5.451876  0.000000
  0.000000  0.000000  0.000000


  5.041999  -6.120943  0.000000
  -6.120943  5.272237  0.000000
  0.000000  0.000000  0.000000


  6.306536  -6.885899  0.000000
  -6.885899  5.755023  0.000000
  0.000000  0.000000  0.000000


  5.824115  -5.895151  0.000000
  -5.895151  5.435806  0.000000
  0.000000  0.000000  0.000000


  6.100995  -6.816103  0.000000
  -6.816103  5.853372  0.000000
  0.000000  0.000000  0.000000


  6.522195  -6.916861  0.000000
  -6.916861  5.639338  0.000000
  0.000000  0.000000  0.000000


  5.439355  -6.262181  0.000000
  -6.262181  5.120498  0.000000
  0.000000  0.000000  0.000000


  4.986076  -5.229200  0.000000
  -5.229200  4.712301  0.000000
  0.000000  0.000000  0.000000


  5.574468  -6.297293  0.000000
  -6.297293  5.053342  0.000000
  0.000000  0.000000  0.000000


  4.552193  -5.599254  0.000000
  -5.599254  4.453391  0.000000
  0.000000  0.000000  0.000000


  4.107598  -4.581463  0.000000
  -4.581463  4.029797  0.000000
  0.000000  0.000000  0.000000


  4.698328  -5.664257  0.000000
  -5.664257  4.412531  0.000000
  0.000000  0.000000  0.000000


  3.721677  -4.941202  0.000000
  -4.941202  3.715033  0.000000
  0.000000  0.000000  0.000000


  3.233897  -3.945749  0.000000
  -3.945749  3.490934  0.000000
  0.000000  0.000000  0.000000


  3.818801  -5.035366  0.000000
  -5.035366  3.777301  0.000000
  0.000000  0.000000  0.000000


  3.073491  -3.865598  0.000000
  -3.865598  3.419548  0.000000
  0.000000  0.000000  0.000000


  4.382436  -4.680711  0.000000
  -4.680711  3.956314  0.000000
  0.000000  0.000000  0.000000


  3.432211  -4.031298  0.000000
  -4.031298  3.396989  0.000000
  0.000000  0.000000  0.000000


  2.562460  -4.181450  0.000000
  -4.181450  3.261855  0.000000
  0.000000  0.000000  0.000000


  4.977299  -5.789584  0.000000
  -5.789584  4.375828  0.000000
  0.000000  0.000000  0.000000


  4.095218  -5.145591  0.000000
  -5.145591  3.752412  0.000000
  0.000000  0.000000  0.000000


  5.567833  -5.427522  0.000000
  -5.427522  4.527034  0.000000
  0.000000  0.000000  0.000000


  4.596466  -4.780838  0.000000
  -4.780838  3.958786  0.000000
  0.000000  0.000000  0.000000


  5.235022  -5.910764  0.000000
  -5.910764  4.369731  0.000000
  0.000000  0.000000  0.000000


  5.846679  -5.530132  0.000000
  -5.530132  4.501946  0.000000
  0.000000  0.000000  0.000000


  5.151356  -4.845410  0.000000
  -4.845410  3.891784  0.000000
  0.000000  0.000000  0.000000


  6.096075  -5.914824  0.000000
  -5.914824  5.290692  0.000000
  0.000000  0.000000  0.000000


  6.757830  -6.980228  0.000000
  -6.980228  5.512725  0.000000
  0.000000  0.000000  0.000000


  7.277834  -6.560551  0.000000
  -6.560551  5.823243  0.000000
  0.000000  0.000000  0.000000


  6.356902  -6.090019  0.000000
  -6.090019  5.196617  0.000000
  0.000000  0.000000  0.000000


  7.032805  -7.130108  0.000000
  -7.130108  5.486585  0.000000
  0.000000  0.000000  0.000000


  5.812547  -6.406775  0.000000
  -6.406775  5.091383  0.000000
  0.000000  0.000000  0.000000


  6.998522  -6.899670  0.000000
  -6.899670  6.120566  0.000000
  0.000000  0.000000  0.000000


  8.474850  -7.198636  0.000000
  -7.198636  5.566558  0.000000
  0.000000  0.000000  0.000000


  6.655228  -6.095001  0.000000
  -6.095001  5.245221  0.000000
  0.000000  0.000000  0.000000


  5.218713  -5.305511  0.000000
  -5.305511  4.602036  0.000000
  0.000000  0.000000  0.000000


  8.240730  -7.387809  0.000000
  -7.387809  6.331125  0.000000
  0.000000  0.000000  0.000000


  6.985833  -7.086704  0.000000
  -7.086704  5.842429  0.000000
  0.000000  0.000000  0.000000


  6.089671  -6.509790  0.000000
  -6.509790  4.980288  0.000000
  0.000000  0.000000  0.000000


  3.976782  -4.095559  0.000000
  -4.095559  3.305190  0.000000
  0.000000  0.000000  0.000000


  7.588799  -7.627022  0.000000
  -7.627022  6.346255  0.000000
  0.000000  0.000000  0.000000


  8.033553  -7.287844  0.000000
  -7.287844  6.556158  0.000000
  0.000000  0.000000  0.000000


  9.073847  -8.417968  0.000000
  -8.417968  6.596461  0.000000
  0.000000  0.000000  0.000000


  7.971810  -7.731400  0.000000
  -7.731400  5.835468  0.000000
  0.000000  0.000000  0.000000


  6.959188  -6.545546  0.000000
  -6.545546  5.912423  0.000000
  0.000000  0.000000  0.000000


  7.359823  -7.541209  0.000000
  -7.541209  6.342593  0.000000
  0.000000  0.000000  0.000000


  7.773833  -7.192185  0.000000
  -7.192185  6.603007  0.000000
  0.000000  0.000000  0.000000


  6.468272  -6.679556  0.000000
  -6.679556  5.035182  0.000000
  0.000000  0.000000  0.000000


  4.231875  -5.367279  0.000000
  -5.367279  3.744374  0.000000
  0.000000  0.000000  0.000000


  -2.915764  1.055006  0.000000
  1.055006  -0.683014  0.000000
  0.000000  0.000000  0.000000


  -4.859514  3.454035  0.000000
  3.454035  -3.257972  0.000000
  0.000000  0.000000  0.000000


  4.245748  -5.448704  0.000000
  -5.448704  6.562027  0.000000
  0.000000  0.000000  0.000000


  1.236136  -2.872118  0.000000
  -2.872118  1.254830  0.000000
  0.000000  0.000000  0.000000


  0.885548  -3.103685  0.000000
  -3.103685  3.292540  0.000000
  0.000000  0.000000  0.000000


  0.528121  -2.065598  0.000000
  -2.065598  2.570286  0.000000
  0.000000  0.000000  0.000000


  0.132612  -2.363196  0.000000
  -2.363196  2.375806  0.000000
  0.000000  0.000000  0.000000


  -0.457825  -1.368747  0.000000
  -1.368747  2.103028  0.000000
  0.000000  0.000000  0.000000


  -2.336934  -0.115294  0.000000
  -0.115294  -0.294026  0.000000
  0.000000  0.000000  0.000000


  0.873909  -2.090943  0.000000
  -2.090943  1.478381  0.000000
  0.000000  0.000000  0.000000


  1.786257  -3.747960  0.000000
  -3.747960  3.740128  0.000000
  0.000000  0.000000  0.000000


  4.863609  -6.671638  0.000000
  -6.671638  7.282372  0.000000
  0.000000  0.000000  0.000000


  8.234416  -6.930921  0.000000
  -6.930921  4.582954  0.000000
  0.000000  0.000000  0.000000


  8.189456  -6.885474  0.000000
  -6.885474  5.224098  0.000000
  0.000000  0.000000  0.000000


  9.180845  -7.888589  0.000000
  -7.888589  5.490979  0.000000
  0.000000  0.000000  0.000000


  9.639711  -7.483798  0.000000
  -7.483798  5.755544  0.000000
  0.000000  0.000000  0.000000


  -0.366123  -1.365583  0.000000
  -1.365583  1.580624  0.000000
  0.000000  0.000000  0.000000


  0.297496  -2.456750  0.000000
  -2.456750  1.932874  0.000000
  0.000000  0.000000  0.000000


  1.027739  -2.355826  0.000000
  -2.355826  2.149299  0.000000
  0.000000  0.000000  0.000000


  1.664431  -3.509933  0.000000
  -3.509933  2.531055  0.000000
  0.000000  0.000000  0.000000


  1.591633  -3.391159  0.000000
  -3.391159  2.427063  0.000000
  0.000000  0.000000  0.000000


  2.192193  -3.186662  0.000000
  -3.186662  2.693910  0.000000
  0.000000  0.000000  0.000000


  0.884623  -2.280358  0.000000
  -2.280358  2.128098  0.000000
  0.000000  0.000000  0.000000


  1.032395  -3.207044  0.000000
  -3.207044  3.512254  0.000000
  0.000000  0.000000  0.000000


  0.464691  -2.106866  0.000000
  -2.106866  2.700658  0.000000
  0.000000  0.000000  0.000000


  -11.703459  8.795830  0.000000
  8.795830  -7.617494  0.000000
  0.000000  0.000000  0.000000


  -12.899733  9.983036  0.000000
  9.983036  -7.867515  0.000000
  0.000000  0.000000  0.000000


  -12.322772  10.028965  0.000000
  10.028965  -8.369455  0.000000
  0.000000  0.000000  0.000000


  1.146413  -2.748526  0.000000
  -2.748526  1.207556  0.000000
  0.000000  0.000000  0.000000


  1.544441  -2.445205  0.000000
  -2.445205  1.379788  0.000000
  0.000000  0.000000  0.000000


  2.701923  -3.517323  0.000000
  -3.517323  1.499558  0.000000
  0.000000  0.000000  0.000000


  2.753783  -3.274055  0.000000
  -3.274055  2.154610  0.000000
  0.000000  0.000000  0.000000


  1.788816  -2.475583  0.000000
  -2.475583  1.491601  0.000000
  0.000000  0.000000  0.000000


  2.734100  -3.671164  0.000000
  -3.671164  1.611942  0.000000
  0.000000  0.000000  0.000000


  3.294476  -3.286407  0.000000
  -3.286407  1.807894  0.000000
  0.000000  0.000000  0.000000


  1.915019  -2.649744  0.000000
  -2.649744  1.539280  0.000000
  0.000000  0.000000  0.000000


  3.841201  -4.318909  0.000000
  -4.318909  2.331996  0.000000
  0.000000  0.000000  0.000000


  4.249588  -4.002011  0.000000
  -4.002011  2.466352  0.000000
  0.000000  0.000000  0.000000


  4.702205  -5.178965  0.000000
  -5.178965  3.002516  0.000000
  0.000000  0.000000  0.000000


  5.328398  -5.041071  0.000000
  -5.041071  2.594832  0.000000
  0.000000  0.000000  0.000000


  3.974817  -4.456831  0.000000
  -4.456831  2.315153  0.000000
  0.000000  0.000000  0.000000


  1.618712  -3.017556  0.000000
  -3.017556  1.139729  0.000000
  0.000000  0.000000  0.000000


  0.971882  -1.836697  0.000000
  -1.836697  0.814742  0.000000
  0.000000  0.000000  0.000000


  1.644492  -3.049635  0.000000
  -3.049635  1.217201  0.000000
  0.000000  0.000000  0.000000


  0.469406  -2.286504  0.000000
  -2.286504  0.638354  0.000000
  0.000000  0.000000  0.000000


  -0.131728  -1.077130  0.000000
  -1.077130  0.203592  0.000000
  0.000000  0.000000  0.000000


  4.498331  -4.053396  0.000000
  -4.053396  2.578484  0.000000
  0.000000  0.000000  0.000000


  5.454463  -5.216004  0.000000
  -5.216004  2.655802  0.000000
  0.000000  0.000000  0.000000


  6.010686  -4.800168  0.000000
  -4.800168  2.902477  0.000000
  0.000000  0.000000  0.000000


  4.676783  -4.179069  0.000000
  -4.179069  2.580263  0.000000
  0.000000  0.000000  0.000000


  2.461981  -2.653862  0.000000
  -2.653862  1.190773  0.000000
  0.000000  0.000000  0.000000


  1.274009  -1.942046  0.000000
  -1.942046  0.743471  0.000000
  0.000000  0.000000  0.000000


  6.270453  -5.839079  0.000000
  -5.839079  3.395851  0.000000
  0.000000  0.000000  0.000000


  5.767521  -5.263642  0.000000
  -5.263642  2.585986  0.000000
  0.000000  0.000000  0.000000


  2.929824  -3.710163  0.000000
  -3.710163  1.733086  0.000000
  0.000000  0.000000  0.000000


  3.369175  -3.388266  0.000000
  -3.388266  1.875520  0.000000
  0.000000  0.000000  0.000000


  4.516443  -4.479984  0.000000
  -4.479984  2.022542  0.000000
  0.000000  0.000000  0.000000


  3.350908  -3.450069  0.000000
  -3.450069  2.053603  0.000000
  0.000000  0.000000  0.000000


  5.636109  -4.673205  0.000000
  -4.673205  2.998535  0.000000
  0.000000  0.000000  0.000000


  6.077051  -5.927221  0.000000
  -5.927221  3.390815  0.000000
  0.000000  0.000000  0.000000


  6.756935  -5.982578  0.000000
  -5.982578  3.324687  0.000000
  0.000000  0.000000  0.000000


  4.559808  -4.446743  0.000000
  -4.446743  1.869364  0.000000
  0.000000  0.000000  0.000000


  3.075014  -3.828878  0.000000
  -3.828878  1.599725  0.000000
  0.000000  0.000000  0.000000


  2.420965  -2.661247  0.000000
  -2.661247  1.326652  0.000000
  0.000000  0.000000  0.000000


  3.065778  -3.809760  0.000000
  -3.809760  1.575676  0.000000
  0.000000  0.000000  0.000000


  1.960741  -3.114182  0.000000
  -3.114182  1.140272  0.000000
  0.000000  0.000000  0.000000


  1.450045  -1.936279  0.000000
  -1.936279  0.734456  0.000000
  0.000000  0.000000  0.000000


  3.629520  -3.379460  0.000000
  -3.379460  1.875362  0.000000
  0.000000  0.000000  0.000000


  4.617582  -4.582807  0.000000
  -4.582807  2.127328  0.000000
  0.000000  0.000000  0.000000


  2.032667  -3.180162  0.000000
  -3.180162  1.331233  0.000000
  0.000000  0.000000  0.000000


  0.964883  -2.351125  0.000000
  -2.351125  0.560473  0.000000
  0.000000  0.000000  0.000000


  5.186098  -4.218972  0.000000
  -4.218972  2.182653  0.000000
  0.000000  0.000000  0.000000


  3.309851  -3.706384  0.000000
  -3.706384  1.990339  0.000000
  0.000000  0.000000  0.000000


  3.358851  -2.935268  0.000000
  -2.935268  1.178696  0.000000
  0.000000  0.000000  0.000000


  5.830572  -5.216553  0.000000
  -5.216553  2.660798  0.000000
  0.000000  0.000000  0.000000


  6.266028  -4.847445  0.000000
  -4.847445  2.821875  0.000000
  0.000000  0.000000  0.000000


  7.084668  -5.981638  0.000000
  -5.981638  3.189106  0.000000
  0.000000  0.000000  0.000000


  7.383373  -5.806735  0.000000
  -5.806735  2.814449  0.000000
  0.000000  0.000000  0.000000


  6.149057  -5.266117  0.000000
  -5.266117  2.510485  0.000000
  0.000000  0.000000  0.000000


  1.854297  -2.093114  0.000000
  -2.093114  0.707504  0.000000
  0.000000  0.000000  0.000000


  -0.257298  -1.118369  0.000000
  -1.118369  0.330850  0.000000
  0.000000  0.000000  0.000000


  -0.126270  -1.182073  0.000000
  -1.182073  0.180473  0.000000
  0.000000  0.000000  0.000000


  -0.904888  -1.621243  0.000000
  -1.621243  0.374830  0.000000
  0.000000  0.000000  0.000000


  0.489694  -2.359194  0.000000
  -2.359194  0.776367  0.000000
  0.000000  0.000000  0.000000


  -0.070694  -1.134069  0.000000
  -1.134069  -0.697391  0.000000
  0.000000  0.000000  0.000000


  -2.115919  -0.840405  0.000000
  -0.840405  0.145348  0.000000
  0.000000  0.000000  0.000000


  7.608511  -5.459400  0.000000
  -5.459400  3.346766  0.000000
  0.000000  0.000000  0.000000


  6.554338  -4.886071  0.000000
  -4.886071  2.855827  0.000000
  0.000000  0.000000  0.000000


  7.609221  -6.095014  0.000000
  -6.095014  2.973529  0.000000
  0.000000  0.000000  0.000000


  8.267676  -5.652913  0.000000
  -5.652913  3.134235  0.000000
  0.000000  0.000000  0.000000


  6.706886  -4.996557  0.000000
  -4.996557  2.961078  0.000000
  0.000000  0.000000  0.000000


  8.315949  -6.575013  0.000000
  -6.575013  3.902772  0.000000
  0.000000  0.000000  0.000000


  9.737257  -6.810824  0.000000
  -6.810824  4.350424  0.000000
  0.000000  0.000000  0.000000


  9.324803  -6.970447  0.000000
  -6.970447  3.642653  0.000000
  0.000000  0.000000  0.000000


  7.841284  -5.971266  0.000000
  -5.971266  2.691090  0.000000
  0.000000  0.000000  0.000000


  6.594176  -5.280272  0.000000
  -5.280272  2.305394  0.000000
  0.000000  0.000000  0.000000


  4.719246  -4.134693  0.000000
  -4.134693  2.470507  0.000000
  0.000000  0.000000  0.000000


  3.071849  -3.562066  0.000000
  -3.562066  1.356307  0.000000
  0.000000  0.000000  0.000000


  8.543771  -6.559742  0.000000
  -6.559742  3.509863  0.000000
  0.000000  0.000000  0.000000


  7.005761  -4.968681  0.000000
  -4.968681  2.647232  0.000000
  0.000000  0.000000  0.000000


  7.106008  -5.417559  0.000000
  -5.417559  3.355440  0.000000
  0.000000  0.000000  0.000000


  9.711105  -6.475007  0.000000
  -6.475007  3.923318  0.000000
  0.000000  0.000000  0.000000


  8.223830  -5.517490  0.000000
  -5.517490  3.161206  0.000000
  0.000000  0.000000  0.000000


  5.245747  -4.151784  0.000000
  -4.151784  2.253373  0.000000
  0.000000  0.000000  0.000000


  4.891236  -4.509255  0.000000
  -4.509255  1.909180  0.000000
  0.000000  0.000000  0.000000


  6.186677  -4.844339  0.000000
  -4.844339  2.897734  0.000000
  0.000000  0.000000  0.000000


  0.787373  -2.610737  0.000000
  -2.610737  0.793659  0.000000
  0.000000  0.000000  0.000000


  5.175107  -4.241287  0.000000
  -4.241287  2.327647  0.000000
  0.000000  0.000000  0.000000


  7.448368  -5.535642  0.000000
  -5.535642  3.457533  0.000000
  0.000000  0.000000  0.000000


  3.679285  -4.420599  0.000000
  -4.420599  2.222269  0.000000
  0.000000  0.000000  0.000000


  -2.567744  0.478723  0.000000
  0.478723  -0.595514  0.000000
  0.000000  0.000000  0.000000


  -5.250987  4.638954  0.000000
  4.638954  -4.869863  0.000000
  0.000000  0.000000  0.000000


  -4.606508  3.537347  0.000000
  3.537347  -4.332195  0.000000
  0.000000  0.000000  0.000000


  -5.028426  4.471885  0.000000
  4.471885  -4.762206  0.000000
  0.000000  0.000000  0.000000


  -4.633302  3.764310  0.000000
  3.764310  -3.815968  0.000000
  0.000000  0.000000  0.000000


  -4.035684  2.704613  0.000000
  2.704613  -3.271739  0.000000
  0.000000  0.000000  0.000000


  -4.442925  3.643312  0.000000
  3.643312  -3.724919  0.000000
  0.000000  0.000000  0.000000


  -4.069642  2.937862  0.000000
  2.937862  -2.753948  0.000000
  0.000000  0.000000  0.000000


  -4.986080  4.232795  0.000000
  4.232795  -5.245049  0.000000
  0.000000  0.000000  0.000000


  -4.427445  3.397209  0.000000
  3.397209  -4.190216  0.000000
  0.000000  0.000000  0.000000


  -4.848596  4.352891  0.000000
  4.352891  -4.674119  0.000000
  0.000000  0.000000  0.000000


  -4.821129  4.107721  0.000000
  4.107721  -5.148437  0.000000
  0.000000  0.000000  0.000000


  -4.247465  3.287659  0.000000
  3.287659  -4.104664  0.000000
  0.000000  0.000000  0.000000


  -3.416608  1.893021  0.000000
  1.893021  -2.258951  0.000000
  0.000000  0.000000  0.000000


  -3.868715  2.584535  0.000000
  2.584535  -3.141183  0.000000
  0.000000  0.000000  0.000000


  -3.553394  1.998420  0.000000
  1.998420  -2.376688  0.000000
  0.000000  0.000000  0.000000


  -5.660600  5.336800  0.000000
  5.336800  -5.860114  0.000000
  0.000000  0.000000  0.000000


  -5.498702  5.137724  0.000000
  5.137724  -6.421917  0.000000
  0.000000  0.000000  0.000000


  -6.234119  6.257442  0.000000
  6.257442  -7.024430  0.000000
  0.000000  0.000000  0.000000


  -6.003082  6.031659  0.000000
  6.031659  -6.795702  0.000000
  0.000000  0.000000  0.000000


  -5.992250  6.069927  0.000000
  6.069927  -7.667195  0.000000
  0.000000  0.000000  0.000000


  -7.184227  7.503680  0.000000
  7.503680  -8.314478  0.000000
  0.000000  0.000000  0.000000


  -6.780611  6.918319  0.000000
  6.918319  -7.885164  0.000000
  0.000000  0.000000  0.000000


  -5.836106  5.809440  0.000000
  5.809440  -7.445098  0.000000
  0.000000  0.000000  0.000000


  -6.416704  6.812695  0.000000
  6.812695  -7.808225  0.000000
  0.000000  0.000000  0.000000


  -5.519534  6.741245  0.000000
  6.741245  -8.951398  0.000000
  0.000000  0.000000  0.000000


  -5.554811  5.647241  0.000000
  5.647241  -7.338388  0.000000
  0.000000  0.000000  0.000000


  -5.305168  4.936563  0.000000
  4.936563  -6.332596  0.000000
  0.000000  0.000000  0.000000


  -5.793725  5.859325  0.000000
  5.859325  -6.581188  0.000000
  0.000000  0.000000  0.000000


  -5.000010  4.816574  0.000000
  4.816574  -6.253270  0.000000
  0.000000  0.000000  0.000000


  -5.494489  5.557849  0.000000
  5.557849  -6.315601  0.000000
  0.000000  0.000000  0.000000


  -5.197798  4.979976  0.000000
  4.979976  -5.501610  0.000000
  0.000000  0.000000  0.000000


  -4.554681  3.936302  0.000000
  3.936302  -5.038400  0.000000
  0.000000  0.000000  0.000000


  -4.909405  4.772094  0.000000
  4.772094  -5.388238  0.000000
  0.000000  0.000000  0.000000


  -4.637702  4.133122  0.000000
  4.133122  -4.438301  0.000000
  0.000000  0.000000  0.000000


  -4.053343  3.101772  0.000000
  3.101772  -3.928838  0.000000
  0.000000  0.000000  0.000000


  -4.405664  3.982509  0.000000
  3.982509  -4.354103  0.000000
  0.000000  0.000000  0.000000


  -4.165897  3.314739  0.000000
  3.314739  -3.312838  0.000000
  0.000000  0.000000  0.000000


  -5.404335  5.191574  0.000000
  5.191574  -5.775015  0.000000
  0.000000  0.000000  0.000000


  -4.757114  4.526134  0.000000
  4.526134  -5.946127  0.000000
  0.000000  0.000000  0.000000


  -5.244088  5.444980  0.000000
  5.444980  -6.301665  0.000000
  0.000000  0.000000  0.000000


  -5.138082  5.215565  0.000000
  5.215565  -6.812443  0.000000
  0.000000  0.000000  0.000000


  -4.512146  4.372548  0.000000
  4.372548  -5.903759  0.000000
  0.000000  0.000000  0.000000


  -4.380792  3.729625  0.000000
  3.729625  -4.815547  0.000000
  0.000000  0.000000  0.000000


  -4.733243  4.576329  0.000000
  4.576329  -5.124995  0.000000
  0.000000  0.000000  0.000000


  -4.101591  3.555373  0.000000
  3.555373  -4.717611  0.000000
  0.000000  0.000000  0.000000


  -4.484878  4.320961  0.000000
  4.320961  -4.920525  0.000000
  0.000000  0.000000  0.000000


  -4.338598  3.723591  0.000000
  3.723591  -3.927203  0.000000
  0.000000  0.000000  0.000000


  -3.507255  2.344806  0.000000
  2.344806  -2.913149  0.000000
  0.000000  0.000000  0.000000


  -4.984544  5.111829  0.000000
  5.111829  -5.985563  0.000000
  0.000000  0.000000  0.000000


  -3.572470  2.785443  0.000000
  2.785443  -3.635989  0.000000
  0.000000  0.000000  0.000000


  -5.521495  6.278646  0.000000
  6.278646  -7.861320  0.000000
  0.000000  0.000000  0.000000


  -4.259885  4.080897  0.000000
  4.080897  -5.586350  0.000000
  0.000000  0.000000  0.000000


  -4.718398  4.894202  0.000000
  4.894202  -5.787384  0.000000
  0.000000  0.000000  0.000000


  -4.519131  4.640360  0.000000
  4.640360  -6.477853  0.000000
  0.000000  0.000000  0.000000


  -4.008029  3.883558  0.000000
  3.883558  -5.393692  0.000000
  0.000000  0.000000  0.000000


  -3.762120  2.987436  0.000000
  2.987436  -3.794463  0.000000
  0.000000  0.000000  0.000000


  -3.976324  3.144717  0.000000
  3.144717  -3.200689  0.000000
  0.000000  0.000000  0.000000


  -3.486079  2.182513  0.000000
  2.182513  -2.540427  0.000000
  0.000000  0.000000  0.000000


  -3.690607  2.991990  0.000000
  2.991990  -2.953680  0.000000
  0.000000  0.000000  0.000000


  -3.248765  2.027275  0.000000
  2.027275  -2.471477  0.000000
  0.000000  0.000000  0.000000


  -3.345469  2.415811  0.000000
  2.415811  -2.241362  0.000000
  0.000000  0.000000  0.000000


  -3.501572  2.813216  0.000000
  2.813216  -2.829576  0.000000
  0.000000  0.000000  0.000000


  -3.352171  2.223031  0.000000
  2.223031  -1.838729  0.000000
  0.000000  0.000000  0.000000


  -3.556414  2.576716  0.000000
  2.576716  -3.168380  0.000000
  0.000000  0.000000  0.000000


  -3.105733  1.870699  0.000000
  1.870699  -2.218666  0.000000
  0.000000  0.000000  0.000000


  -2.647551  1.327359  0.000000
  1.327359  -1.530043  0.000000
  0.000000  0.000000  0.000000


  -2.790048  1.488434  0.000000
  1.488434  -1.655216  0.000000
  0.000000  0.000000  0.000000


  -2.972315  1.649836  0.000000
  1.649836  -1.131918  0.000000
  0.000000  0.000000  0.000000


  -2.455939  0.751400  0.000000
  0.751400  -0.573499  0.000000
  0.000000  0.000000  0.000000


  -2.421065  0.877852  0.000000
  0.877852  -0.944687  0.000000
  0.000000  0.000000  0.000000


  -2.724290  1.549124  0.000000
  1.549124  -0.898583  0.000000
  0.000000  0.000000  0.000000


  -2.287629  0.633454  0.000000
  0.633454  -0.448093  0.000000
  0.000000  0.000000  0.000000


  -2.594900  1.441489  0.000000
  1.441489  -0.780685  0.000000
  0.000000  0.000000  0.000000


  -2.342124  0.845914  0.000000
  0.845914  0.121408  0.000000
  0.000000  0.000000  0.000000


  -2.346109  0.999882  0.000000
  0.999882  -0.214745  0.000000
  0.000000  0.000000  0.000000


  -2.584787  1.081352  0.000000
  1.081352  -0.245822  0.000000
  0.000000  0.000000  0.000000


  -3.160118  1.784297  0.000000
  1.784297  -1.197357  0.000000
  0.000000  0.000000  0.000000


  -2.545366  1.192223  0.000000
  1.192223  -1.238815  0.000000
  0.000000  0.000000  0.000000


  -3.078952  1.987878  0.000000
  1.987878  -1.416705  0.000000
  0.000000  0.000000  0.000000


  -2.156094  0.515664  0.000000
  0.515664  -0.229695  0.000000
  0.000000  0.000000  0.000000


  -1.701414  -0.034285  0.000000
  -0.034285  0.454416  0.000000
  0.000000  0.000000  0.000000


  -1.809653  0.088667  0.000000
  0.088667  0.327241  0.000000
  0.000000  0.000000  0.000000


  -1.899116  0.273839  0.000000
  0.273839  0.799655  0.000000
  0.000000  0.000000  0.000000


  -1.419112  -0.590695  0.000000
  -0.590695  1.307013  0.000000
  0.000000  0.000000  0.000000


  -1.381597  -0.500661  0.000000
  -0.500661  0.971374  0.000000
  0.000000  0.000000  0.000000


  -1.724914  0.201360  0.000000
  0.201360  1.020930  0.000000
  0.000000  0.000000  0.000000


  -1.299754  -0.676572  0.000000
  -0.676572  1.450986  0.000000
  0.000000  0.000000  0.000000


  -1.633343  0.117106  0.000000
  0.117106  1.168453  0.000000
  0.000000  0.000000  0.000000


  -1.305471  -0.451277  0.000000
  -0.451277  1.964741  0.000000
  0.000000  0.000000  0.000000


  -1.303949  -0.338109  0.000000
  -0.338109  1.677391  0.000000
  0.000000  0.000000  0.000000


  -1.464258  -0.268353  0.000000
  -0.268353  1.598487  0.000000
  0.000000  0.000000  0.000000


  -1.933391  0.410506  0.000000
  0.410506  0.666597  0.000000
  0.000000  0.000000  0.000000


  -1.565720  -0.461160  0.000000
  -0.461160  0.939943  0.000000
  0.000000  0.000000  0.000000


  -1.622619  -0.133238  0.000000
  -0.133238  0.715016  0.000000
  0.000000  0.000000  0.000000


  -2.120170  0.654515  0.000000
  0.654515  0.531784  0.000000
  0.000000  0.000000  0.000000


  -1.214599  -0.751539  0.000000
  -0.751539  1.659545  0.000000
  0.000000  0.000000  0.000000


  -0.723352  -1.303819  0.000000
  -1.303819  2.310489  0.000000
  0.000000  0.000000  0.000000


  -0.802351  -1.216373  0.000000
  -1.216373  2.174481  0.000000
  0.000000  0.000000  0.000000


  -0.827724  -1.014293  0.000000
  -1.014293  2.613858  0.000000
  0.000000  0.000000  0.000000


  -0.367561  -1.852939  0.000000
  -1.852939  3.082104  0.000000
  0.000000  0.000000  0.000000


  -0.334745  -1.797470  0.000000
  -1.797470  2.811063  0.000000
  0.000000  0.000000  0.000000


  -5.494352  6.163699  0.000000
  6.163699  -7.440050  0.000000
  0.000000  0.000000  0.000000


  -3.633485  2.492284  0.000000
  2.492284  -3.056086  0.000000
  0.000000  0.000000  0.000000


  -3.808958  2.679750  0.000000
  2.679750  -2.467441  0.000000
  0.000000  0.000000  0.000000


  -4.285132  3.526257  0.000000
  3.526257  -3.610485  0.000000
  0.000000  0.000000  0.000000


  -3.261063  1.698200  0.000000
  1.698200  -1.954540  0.000000
  0.000000  0.000000  0.000000


  -3.262170  1.816584  0.000000
  1.816584  -2.127082  0.000000
  0.000000  0.000000  0.000000


  -3.521934  2.594907  0.000000
  2.594907  -2.347620  0.000000
  0.000000  0.000000  0.000000


  -3.027733  1.591914  0.000000
  1.591914  -1.900905  0.000000
  0.000000  0.000000  0.000000


  -3.304229  2.035623  0.000000
  2.035623  -1.668898  0.000000
  0.000000  0.000000  0.000000


  -2.777627  1.035524  0.000000
  1.035524  -1.082092  0.000000
  0.000000  0.000000  0.000000


  -2.828913  1.109642  0.000000
  1.109642  -1.243312  0.000000
  0.000000  0.000000  0.000000


  -3.799017  3.374006  0.000000
  3.374006  -4.471828  0.000000
  0.000000  0.000000  0.000000


  -4.102155  3.540771  0.000000
  3.540771  -3.859717  0.000000
  0.000000  0.000000  0.000000


  -4.428820  4.045675  0.000000
  4.045675  -4.486208  0.000000
  0.000000  0.000000  0.000000


  -0.703040  -1.064063  0.000000
  -1.064063  2.814919  0.000000
  0.000000  0.000000  0.000000


  -0.285779  -1.911446  0.000000
  -1.911446  3.229028  0.000000
  0.000000  0.000000  0.000000


  -0.639421  -1.127285  0.000000
  -1.127285  2.971330  0.000000
  0.000000  0.000000  0.000000


  -0.248929  -1.678526  0.000000
  -1.678526  3.694124  0.000000
  0.000000  0.000000  0.000000


  -0.237552  -1.600719  0.000000
  -1.600719  3.445048  0.000000
  0.000000  0.000000  0.000000


  -0.851814  -0.909914  0.000000
  -0.909914  2.479298  0.000000
  0.000000  0.000000  0.000000


  -0.466727  -1.762129  0.000000
  -1.762129  2.750408  0.000000
  0.000000  0.000000  0.000000


  -0.233027  -1.960774  0.000000
  -1.960774  3.423347  0.000000
  0.000000  0.000000  0.000000


  0.228410  -2.444656  0.000000
  -2.444656  3.903760  0.000000
  0.000000  0.000000  0.000000


  0.262876  -2.226548  0.000000
  -2.226548  4.312962  0.000000
  0.000000  0.000000  0.000000


  0.692553  -3.040903  0.000000
  -3.040903  4.751012  0.000000
  0.000000  0.000000  0.000000


  0.734925  -3.010785  0.000000
  -3.010785  4.516014  0.000000
  0.000000  0.000000  0.000000


  -0.344783  -1.561592  0.000000
  -1.561592  3.339299  0.000000
  0.000000  0.000000  0.000000


  -0.666195  -1.375339  0.000000
  -1.375339  2.536527  0.000000
  0.000000  0.000000  0.000000


  -1.136675  -0.596178  0.000000
  -0.596178  2.349034  0.000000
  0.000000  0.000000  0.000000


  0.277647  -2.502817  0.000000
  -2.502817  4.046077  0.000000
  0.000000  0.000000  0.000000


  -5.931254  7.135455  0.000000
  7.135455  -9.163191  0.000000
  0.000000  0.000000  0.000000


  -7.093322  7.848120  0.000000
  7.848120  -9.108270  0.000000
  0.000000  0.000000  0.000000


  -1.970992  0.432326  0.000000
  0.432326  -0.138990  0.000000
  0.000000  0.000000  0.000000


  -0.886355  -0.839912  0.000000
  -0.839912  2.242085  0.000000
  0.000000  0.000000  0.000000


  0.259215  -2.157229  0.000000
  -2.157229  4.170724  0.000000
  0.000000  0.000000  0.000000


  0.661644  -3.004515  0.000000
  -3.004515  4.421337  0.000000
  0.000000  0.000000  0.000000


  -4.476292  4.663008  0.000000
  4.663008  -5.678882  0.000000
  0.000000  0.000000  0.000000


  -3.189247  2.135196  0.000000
  2.135196  -1.695241  0.000000
  0.000000  0.000000  0.000000


  -3.445029  2.138171  0.000000
  2.138171  -1.727841  0.000000
  0.000000  0.000000  0.000000


  -2.965742  1.231017  0.000000
  1.231017  -1.408636  0.000000
  0.000000  0.000000  0.000000


  -5.100079  5.681179  0.000000
  5.681179  -7.025757  0.000000
  0.000000  0.000000  0.000000


  -2.836072  1.788707  0.000000
  1.788707  -2.188769  0.000000
  0.000000  0.000000  0.000000


  -2.679666  1.289855  0.000000
  1.289855  -0.697185  0.000000
  0.000000  0.000000  0.000000


  -0.581808  -1.434232  0.000000
  -1.434232  2.688092  0.000000
  0.000000  0.000000  0.000000


  -3.414480  2.739930  0.000000
  2.739930  -2.545917  0.000000
  0.000000  0.000000  0.000000


  -1.522665  -0.199316  0.000000
  -0.199316  1.374894  0.000000
  0.000000  0.000000  0.000000


  -0.977339  -1.074799  0.000000
  -1.074799  1.602017  0.000000
  0.000000  0.000000  0.000000


  -0.983538  -0.834167  0.000000
  -0.834167  2.129523  0.000000
  0.000000  0.000000  0.000000


  -1.639868  -0.153989  0.000000
  -0.153989  1.262917  0.000000
  0.000000  0.000000  0.000000


  0.852564  -2.786781  0.000000
  -2.786781  5.093899  0.000000
  0.000000  0.000000  0.000000


  -5.179509  5.412544  0.000000
  5.412544  -7.037193  0.000000
  0.000000  0.000000  0.000000


  -6.074755  6.505961  0.000000
  6.505961  -7.547072  0.000000
  0.000000  0.000000  0.000000


  -5.415474  6.397039  0.000000
  6.397039  -8.854842  0.000000
  0.000000  0.000000  0.000000


  -3.810102  3.469691  0.000000
  3.469691  -3.823331  0.000000
  0.000000  0.000000  0.000000


  -1.512005  -0.208171  0.000000
  -0.208171  0.855747  0.000000
  0.000000  0.000000  0.000000


  -1.126705  -0.834155  0.000000
  -0.834155  1.824444  0.000000
  0.000000  0.000000  0.000000


  -1.553169  0.017106  0.000000
  0.017106  1.421249  0.000000
  0.000000  0.000000  0.000000


  -1.441467  -0.070697  0.000000
  -0.070697  1.574002  0.000000
  0.000000  0.000000  0.000000


  -1.513214  -0.318130  0.000000
  -0.318130  1.192993  0.000000
  0.000000  0.000000  0.000000


  -1.051145  -0.907689  0.000000
  -0.907689  2.058552  0.000000
  0.000000  0.000000  0.000000


  -2.475339  1.051334  0.000000
  1.051334  -1.094932  0.000000
  0.000000  0.000000  0.000000


  -2.826216  1.866108  0.000000
  1.866108  -1.326289  0.000000
  0.000000  0.000000  0.000000


  -2.818397  1.599548  0.000000
  1.599548  -1.806859  0.000000
  0.000000  0.000000  0.000000


  -2.358032  0.952730  0.000000
  0.952730  -0.823981  0.000000
  0.000000  0.000000  0.000000


  -0.315664  -1.506841  0.000000
  -1.506841  3.094189  0.000000
  0.000000  0.000000  0.000000


  0.337945  -2.261866  0.000000
  -2.261866  4.495509  0.000000
  0.000000  0.000000  0.000000


  0.751908  -3.077999  0.000000
  -3.077999  4.892482  0.000000
  0.000000  0.000000  0.000000


  0.381351  -2.296869  0.000000
  -2.296869  4.647056  0.000000
  0.000000  0.000000  0.000000


  0.809376  -2.844077  0.000000
  -2.844077  5.327340  0.000000
  0.000000  0.000000  0.000000


  0.308357  -2.541145  0.000000
  -2.541145  4.249321  0.000000
  0.000000  0.000000  0.000000


  -0.140928  -1.771826  0.000000
  -1.771826  4.062843  0.000000
  0.000000  0.000000  0.000000


  0.777459  -3.111740  0.000000
  -3.111740  5.075757  0.000000
  0.000000  0.000000  0.000000


  1.323059  -3.668000  0.000000
  -3.668000  5.691556  0.000000
  0.000000  0.000000  0.000000


  1.248300  -3.577240  0.000000
  -3.577240  5.512640  0.000000
  0.000000  0.000000  0.000000


  1.379788  -3.340025  0.000000
  -3.340025  5.859670  0.000000
  0.000000  0.000000  0.000000


  1.915241  -4.186693  0.000000
  -4.186693  6.294298  0.000000
  0.000000  0.000000  0.000000


  1.852171  -4.155865  0.000000
  -4.155865  6.097158  0.000000
  0.000000  0.000000  0.000000


  1.450528  -3.429078  0.000000
  -3.429078  6.054804  0.000000
  0.000000  0.000000  0.000000


  1.786616  -4.324226  0.000000
  -4.324226  6.800035  0.000000
  0.000000  0.000000  0.000000


  1.527336  -3.451640  0.000000
  -3.451640  6.083225  0.000000
  0.000000  0.000000  0.000000


  2.360159  -4.885537  0.000000
  -4.885537  7.781191  0.000000
  0.000000  0.000000  0.000000


  1.814000  -4.074669  0.000000
  -4.074669  6.971282  0.000000
  0.000000  0.000000  0.000000


  1.888645  -3.933407  0.000000
  -3.933407  6.526106  0.000000
  0.000000  0.000000  0.000000


  1.342566  -3.333294  0.000000
  -3.333294  5.748805  0.000000
  0.000000  0.000000  0.000000


  -4.938822  5.462740  0.000000
  5.462740  -6.736458  0.000000
  0.000000  0.000000  0.000000


  -2.001766  0.479703  0.000000
  0.479703  0.397746  0.000000
  0.000000  0.000000  0.000000


  -2.786999  1.362274  0.000000
  1.362274  -0.780799  0.000000
  0.000000  0.000000  0.000000


  -3.147029  1.967828  0.000000
  1.967828  -1.586650  0.000000
  0.000000  0.000000  0.000000


  0.835623  -2.760115  0.000000
  -2.760115  4.937601  0.000000
  0.000000  0.000000  0.000000


  1.242760  -3.581828  0.000000
  -3.581828  5.327910  0.000000
  0.000000  0.000000  0.000000


  1.255956  -3.621491  0.000000
  -3.621491  5.240313  0.000000
  0.000000  0.000000  0.000000


  -1.207689  -0.504333  0.000000
  -0.504333  2.117827  0.000000
  0.000000  0.000000  0.000000


  -1.984797  0.529933  0.000000
  0.529933  0.672822  0.000000
  0.000000  0.000000  0.000000


  -1.796970  0.343036  0.000000
  0.343036  0.113343  0.000000
  0.000000  0.000000  0.000000


  -2.382330  0.990587  0.000000
  0.990587  0.131249  0.000000
  0.000000  0.000000  0.000000


  -2.090816  0.864360  0.000000
  0.864360  -0.746317  0.000000
  0.000000  0.000000  0.000000


  -1.643864  0.232570  0.000000
  0.232570  0.263018  0.000000
  0.000000  0.000000  0.000000


  -1.794188  0.385414  0.000000
  0.385414  1.004994  0.000000
  0.000000  0.000000  0.000000


  -1.336584  -0.430098  0.000000
  -0.430098  1.323796  0.000000
  0.000000  0.000000  0.000000


  -1.640467  0.251838  0.000000
  0.251838  1.205933  0.000000
  0.000000  0.000000  0.000000


  -1.344251  -0.228125  0.000000
  -0.228125  1.889150  0.000000
  0.000000  0.000000  0.000000


  -0.979224  -1.006184  0.000000
  -1.006184  2.276876  0.000000
  0.000000  0.000000  0.000000


  -1.660913  0.010434  0.000000
  0.010434  0.793342  0.000000
  0.000000  0.000000  0.000000


  -1.237511  -0.562703  0.000000
  -0.562703  1.639626  0.000000
  0.000000  0.000000  0.000000


  -1.218536  -0.316811  0.000000
  -0.316811  2.101486  0.000000
  0.000000  0.000000  0.000000


  -1.012602  -0.801288  0.000000
  -0.801288  2.815892  0.000000
  0.000000  0.000000  0.000000


  -0.851950  -1.103171  0.000000
  -1.103171  2.509116  0.000000
  0.000000  0.000000  0.000000


  -1.154392  -0.387857  0.000000
  -0.387857  2.297005  0.000000
  0.000000  0.000000  0.000000


  -0.879721  -0.876400  0.000000
  -0.876400  3.021610  0.000000
  0.000000  0.000000  0.000000


  -0.457134  -1.569542  0.000000
  -1.569542  3.092832  0.000000
  0.000000  0.000000  0.000000


  -0.492966  -1.485535  0.000000
  -1.485535  2.904511  0.000000
  0.000000  0.000000  0.000000


  -0.508809  -1.268220  0.000000
  -1.268220  3.335429  0.000000
  0.000000  0.000000  0.000000


  -0.180995  -2.048718  0.000000
  -2.048718  3.833657  0.000000
  0.000000  0.000000  0.000000


  -0.178061  -2.012664  0.000000
  -2.012664  3.593922  0.000000
  0.000000  0.000000  0.000000


  -0.420473  -1.329736  0.000000
  -1.329736  3.586596  0.000000
  0.000000  0.000000  0.000000


  -0.060101  -2.111236  0.000000
  -2.111236  3.954987  0.000000
  0.000000  0.000000  0.000000


  -0.030534  -1.808627  0.000000
  -1.808627  4.145899  0.000000
  0.000000  0.000000  0.000000


  -0.587433  -1.201571  0.000000
  -1.201571  3.207635  0.000000
  0.000000  0.000000  0.000000


  -0.363079  -1.412839  0.000000
  -1.412839  3.763521  0.000000
  0.000000  0.000000  0.000000


  -0.071478  -1.904719  0.000000
  -1.904719  4.450445  0.000000
  0.000000  0.000000  0.000000


  -0.422729  -1.655247  0.000000
  -1.655247  3.377373  0.000000
  0.000000  0.000000  0.000000


  -0.784877  -0.909012  0.000000
  -0.909012  3.160037  0.000000
  0.000000  0.000000  0.000000


  -0.805815  -1.151757  0.000000
  -1.151757  2.735349  0.000000
  0.000000  0.000000  0.000000


  -0.345718  -1.673401  0.000000
  -1.673401  3.514716  0.000000
  0.000000  0.000000  0.000000


  -1.136023  -0.419656  0.000000
  -0.419656  2.488571  0.000000
  0.000000  0.000000  0.000000


  -0.006428  -2.171794  0.000000
  -2.171794  4.184738  0.000000
  0.000000  0.000000  0.000000


  0.468000  -2.650156  0.000000
  -2.650156  4.731126  0.000000
  0.000000  0.000000  0.000000


  0.401772  -2.580458  0.000000
  -2.580458  4.602326  0.000000
  0.000000  0.000000  0.000000


  0.382272  -2.397449  0.000000
  -2.397449  4.998656  0.000000
  0.000000  0.000000  0.000000


  0.772884  -3.135027  0.000000
  -3.135027  5.426269  0.000000
  0.000000  0.000000  0.000000


  0.855270  -3.113905  0.000000
  -3.113905  5.184205  0.000000
  0.000000  0.000000  0.000000


  0.891027  -2.890191  0.000000
  -2.890191  5.603680  0.000000
  0.000000  0.000000  0.000000


  0.492345  -2.432335  0.000000
  -2.432335  5.195539  0.000000
  0.000000  0.000000  0.000000


  0.863108  -3.181485  0.000000
  -3.181485  5.557838  0.000000
  0.000000  0.000000  0.000000


  0.552341  -2.465326  0.000000
  -2.465326  5.343358  0.000000
  0.000000  0.000000  0.000000


  0.872643  -2.978667  0.000000
  -2.978667  6.002483  0.000000
  0.000000  0.000000  0.000000


  0.944737  -2.893870  0.000000
  -2.893870  5.727663  0.000000
  0.000000  0.000000  0.000000


  0.891437  -3.209611  0.000000
  -3.209611  5.758762  0.000000
  0.000000  0.000000  0.000000


  1.293337  -3.610004  0.000000
  -3.610004  6.132569  0.000000
  0.000000  0.000000  0.000000


  1.380515  -3.408710  0.000000
  -3.408710  6.454071  0.000000
  0.000000  0.000000  0.000000


  2.015779  -4.130247  0.000000
  -4.130247  6.774680  0.000000
  0.000000  0.000000  0.000000


  1.758012  -4.159893  0.000000
  -4.159893  6.878151  0.000000
  0.000000  0.000000  0.000000


  0.494305  -2.701017  0.000000
  -2.701017  4.966104  0.000000
  0.000000  0.000000  0.000000


  0.047246  -1.987510  0.000000
  -1.987510  4.831144  0.000000
  0.000000  0.000000  0.000000


  0.056752  -2.203090  0.000000
  -2.203090  4.354795  0.000000
  0.000000  0.000000  0.000000


  -0.333224  -1.449662  0.000000
  -1.449662  3.970835  0.000000
  0.000000  0.000000  0.000000


  0.557306  -2.720359  0.000000
  -2.720359  5.105332  0.000000
  0.000000  0.000000  0.000000


  1.437436  -3.745591  0.000000
  -3.745591  6.309767  0.000000
  0.000000  0.000000  0.000000


  -1.269327  -0.656933  0.000000
  -0.656933  1.907663  0.000000
  0.000000  0.000000  0.000000


  -0.706734  -1.195058  0.000000
  -1.195058  2.905731  0.000000
  0.000000  0.000000  0.000000


  2.136428  -4.658523  0.000000
  -4.658523  7.772359  0.000000
  0.000000  0.000000  0.000000


  -1.083349  -0.625544  0.000000
  -0.625544  2.063287  0.000000
  0.000000  0.000000  0.000000


  1.327108  -3.665947  0.000000
  -3.665947  5.855937  0.000000
  0.000000  0.000000  0.000000


  1.494074  -3.421457  0.000000
  -3.421457  6.272865  0.000000
  0.000000  0.000000  0.000000


  1.689745  -4.194773  0.000000
  -4.194773  6.901603  0.000000
  0.000000  0.000000  0.000000


  2.194069  -4.070736  0.000000
  -4.070736  6.806459  0.000000
  0.000000  0.000000  0.000000


  -2.189448  0.816293  0.000000
  0.816293  0.308531  0.000000
  0.000000  0.000000  0.000000


  -1.966861  0.678554  0.000000
  0.678554  -0.274006  0.000000
  0.000000  0.000000  0.000000


  -2.607133  1.438668  0.000000
  1.438668  -0.687444  0.000000
  0.000000  0.000000  0.000000


  -2.331799  1.340105  0.000000
  1.340105  -1.357349  0.000000
  0.000000  0.000000  0.000000


  -2.477349  1.261897  0.000000
  1.261897  -0.264702  0.000000
  0.000000  0.000000  0.000000


  -2.935152  2.147775  0.000000
  2.147775  -1.718085  0.000000
  0.000000  0.000000  0.000000


  -2.861740  1.838838  0.000000
  1.838838  -1.192449  0.000000
  0.000000  0.000000  0.000000


  -2.155769  1.137571  0.000000
  1.137571  -1.127326  0.000000
  0.000000  0.000000  0.000000


  -1.798360  0.579209  0.000000
  0.579209  -0.145500  0.000000
  0.000000  0.000000  0.000000


  -2.679433  1.623421  0.000000
  1.623421  -0.786021  0.000000
  0.000000  0.000000  0.000000


  -2.357237  1.493995  0.000000
  1.493995  -1.680727  0.000000
  0.000000  0.000000  0.000000


  -2.037231  0.931295  0.000000
  0.931295  -0.716107  0.000000
  0.000000  0.000000  0.000000


  -2.554554  1.446461  0.000000
  1.446461  -1.761397  0.000000
  0.000000  0.000000  0.000000


  -2.754422  1.925865  0.000000
  1.925865  -2.410850  0.000000
  0.000000  0.000000  0.000000


  -2.502145  1.756697  0.000000
  1.756697  -2.163470  0.000000
  0.000000  0.000000  0.000000


  -3.020857  2.235819  0.000000
  2.235819  -1.872324  0.000000
  0.000000  0.000000  0.000000


  -2.675175  2.139019  0.000000
  2.139019  -2.786864  0.000000
  0.000000  0.000000  0.000000


  -3.365203  2.918668  0.000000
  2.918668  -2.978376  0.000000
  0.000000  0.000000  0.000000


  -3.173738  2.598818  0.000000
  2.598818  -2.488330  0.000000
  0.000000  0.000000  0.000000


  -2.828724  1.995305  0.000000
  1.995305  -1.454010  0.000000
  0.000000  0.000000  0.000000


  -2.486900  1.301712  0.000000
  1.301712  -0.394806  0.000000
  0.000000  0.000000  0.000000


  -2.384742  0.973332  0.000000
  0.973332  0.276546  0.000000
  0.000000  0.000000  0.000000


  -1.633168  0.643640  0.000000
  0.643640  0.202516  0.000000
  0.000000  0.000000  0.000000


  -1.553033  -0.102083  0.000000
  -0.102083  1.043665  0.000000
  0.000000  0.000000  0.000000


  -1.947712  0.731220  0.000000
  0.731220  0.411778  0.000000
  0.000000  0.000000  0.000000


  -1.552928  0.108866  0.000000
  0.108866  1.431570  0.000000
  0.000000  0.000000  0.000000


  -3.168785  2.564086  0.000000
  2.564086  -2.305524  0.000000
  0.000000  0.000000  0.000000


  -2.475380  1.882622  0.000000
  1.882622  -2.379942  0.000000
  0.000000  0.000000  0.000000


  -2.968061  2.352957  0.000000
  2.352957  -2.031964  0.000000
  0.000000  0.000000  0.000000


  -2.615500  2.229513  0.000000
  2.229513  -2.992463  0.000000
  0.000000  0.000000  0.000000


  -2.316056  1.651133  0.000000
  1.651133  -1.917751  0.000000
  0.000000  0.000000  0.000000


  0.308477  -2.597570  0.000000
  -2.597570  4.418469  0.000000
  0.000000  0.000000  0.000000


  -3.334158  2.829934  0.000000
  2.829934  -2.796825  0.000000
  0.000000  0.000000  0.000000


  -2.999358  2.788560  0.000000
  2.788560  -3.961119  0.000000
  0.000000  0.000000  0.000000


  -2.865371  2.366317  0.000000
  2.366317  -3.264884  0.000000
  0.000000  0.000000  0.000000


  -0.722398  -0.972096  0.000000
  -0.972096  3.347879  0.000000
  0.000000  0.000000  0.000000


  -2.780566  2.520807  0.000000
  2.520807  -3.504203  0.000000
  0.000000  0.000000  0.000000


  -2.713934  1.724755  0.000000
  1.724755  -0.936512  0.000000
  0.000000  0.000000  0.000000


  0.575633  -2.510869  0.000000
  -2.510869  5.560166  0.000000
  0.000000  0.000000  0.000000


  0.954243  -3.237778  0.000000
  -3.237778  5.899457  0.000000
  0.000000  0.000000  0.000000


  0.631323  -2.555390  0.000000
  -2.555390  5.719818  0.000000
  0.000000  0.000000  0.000000


  0.979761  -3.032972  0.000000
  -3.032972  6.325854  0.000000
  0.000000  0.000000  0.000000


  0.531223  -2.780131  0.000000
  -2.780131  5.385934  0.000000
  0.000000  0.000000  0.000000


  0.975919  -3.266352  0.000000
  -3.266352  6.092901  0.000000
  0.000000  0.000000  0.000000


  1.485637  -3.769130  0.000000
  -3.769130  6.623226  0.000000
  0.000000  0.000000  0.000000


  1.429923  -3.721491  0.000000
  -3.721491  6.473857  0.000000
  0.000000  0.000000  0.000000


  1.570516  -3.514170  0.000000
  -3.514170  6.742265  0.000000
  0.000000  0.000000  0.000000


  -2.107702  1.286743  0.000000
  1.286743  -1.298409  0.000000
  0.000000  0.000000  0.000000


  0.131931  -2.063150  0.000000
  -2.063150  4.986539  0.000000
  0.000000  0.000000  0.000000


  0.164936  -2.255047  0.000000
  -2.255047  4.558042  0.000000
  0.000000  0.000000  0.000000


  -0.266963  -1.518191  0.000000
  -1.518191  4.162310  0.000000
  0.000000  0.000000  0.000000


  -0.241741  -1.604889  0.000000
  -1.604889  4.439953  0.000000
  0.000000  0.000000  0.000000


  -0.263919  -1.733467  0.000000
  -1.733467  3.727218  0.000000
  0.000000  0.000000  0.000000


  -0.175876  -1.811153  0.000000
  -1.811153  3.914403  0.000000
  0.000000  0.000000  0.000000


  0.248069  -2.312031  0.000000
  -2.312031  4.710353  0.000000
  0.000000  0.000000  0.000000


  1.049736  -3.051580  0.000000
  -3.051580  6.442828  0.000000
  0.000000  0.000000  0.000000


  -0.651492  -1.058495  0.000000
  -1.058495  3.597599  0.000000
  0.000000  0.000000  0.000000


  -0.560305  -1.193195  0.000000
  -1.193195  3.866055  0.000000
  0.000000  0.000000  0.000000


  -4.692257  4.917771  0.000000
  4.917771  -6.770782  0.000000
  0.000000  0.000000  0.000000


  0.144041  -2.365137  0.000000
  -2.365137  3.582060  0.000000
  0.000000  0.000000  0.000000


  0.171510  -2.155273  0.000000
  -2.155273  3.977123  0.000000
  0.000000  0.000000  0.000000


  0.687202  -2.968773  0.000000
  -2.968773  4.208327  0.000000
  0.000000  0.000000  0.000000


  0.720807  -2.736670  0.000000
  -2.736670  4.680560  0.000000
  0.000000  0.000000  0.000000


  0.076100  -2.104774  0.000000
  -2.104774  3.893627  0.000000
  0.000000  0.000000  0.000000


  1.190691  -3.576415  0.000000
  -3.576415  5.023263  0.000000
  0.000000  0.000000  0.000000


  0.789824  -2.748723  0.000000
  -2.748723  4.792371  0.000000
  0.000000  0.000000  0.000000


  1.240729  -3.565158  0.000000
  -3.565158  4.855296  0.000000
  0.000000  0.000000  0.000000


  -4.255503  4.546334  0.000000
  4.546334  -6.294981  0.000000
  0.000000  0.000000  0.000000


  0.628506  -2.934364  0.000000
  -2.934364  4.000256  0.000000
  0.000000  0.000000  0.000000


  -1.975025  0.114007  0.000000
  0.114007  0.101974  0.000000
  0.000000  0.000000  0.000000


  -2.212302  0.770190  0.000000
  0.770190  0.281371  0.000000
  0.000000  0.000000  0.000000


  -3.850228  3.645951  0.000000
  3.645951  -4.918840  0.000000
  0.000000  0.000000  0.000000


  -2.003427  0.235256  0.000000
  0.235256  -0.054598  0.000000
  0.000000  0.000000  0.000000


  0.157963  -2.436956  0.000000
  -2.436956  3.704811  0.000000
  0.000000  0.000000  0.000000


  -5.761811  6.120860  0.000000
  6.120860  -7.964407  0.000000
  0.000000  0.000000  0.000000


  -2.490703  1.338834  0.000000
  1.338834  -0.510230  0.000000
  0.000000  0.000000  0.000000


  0.224956  -2.111833  0.000000
  -2.111833  5.192429  0.000000
  0.000000  0.000000  0.000000


  0.607763  -2.817175  0.000000
  -2.817175  5.522131  0.000000
  0.000000  0.000000  0.000000


  0.296502  -2.170160  0.000000
  -2.170160  5.378594  0.000000
  0.000000  0.000000  0.000000


  0.659658  -2.615210  0.000000
  -2.615210  5.905996  0.000000
  0.000000  0.000000  0.000000


  1.176472  -3.327229  0.000000
  -3.327229  6.249158  0.000000
  0.000000  0.000000  0.000000


  0.706753  -2.660159  0.000000
  -2.660159  6.099364  0.000000
  0.000000  0.000000  0.000000


  1.054213  -3.214006  0.000000
  -3.214006  6.827894  0.000000
  0.000000  0.000000  0.000000


  0.253024  -2.390848  0.000000
  -2.390848  4.999942  0.000000
  0.000000  0.000000  0.000000


  0.661436  -2.872792  0.000000
  -2.872792  5.742766  0.000000
  0.000000  0.000000  0.000000


  0.342653  -2.189613  0.000000
  -2.189613  5.531529  0.000000
  0.000000  0.000000  0.000000


  0.264712  -2.415698  0.000000
  -2.415698  5.177963  0.000000
  0.000000  0.000000  0.000000


  0.669901  -2.869253  0.000000
  -2.869253  5.888202  0.000000
  0.000000  0.000000  0.000000


  1.224959  -3.395732  0.000000
  -3.395732  6.491256  0.000000
  0.000000  0.000000  0.000000


  -0.153030  -1.687638  0.000000
  -1.687638  4.614366  0.000000
  0.000000  0.000000  0.000000


  -0.084400  -1.880018  0.000000
  -1.880018  4.146987  0.000000
  0.000000  0.000000  0.000000


  -0.533249  -1.289352  0.000000
  -1.289352  4.162488  0.000000
  0.000000  0.000000  0.000000


  -0.362795  -1.452740  0.000000
  -1.452740  3.556386  0.000000
  0.000000  0.000000  0.000000


  -0.023632  -1.948255  0.000000
  -1.948255  4.331877  0.000000
  0.000000  0.000000  0.000000


  -0.415344  -1.329731  0.000000
  -1.329731  4.332550  0.000000
  0.000000  0.000000  0.000000


  -0.055279  -1.724126  0.000000
  -1.724126  4.780782  0.000000
  0.000000  0.000000  0.000000


  -0.359665  -1.541820  0.000000
  -1.541820  3.877141  0.000000
  0.000000  0.000000  0.000000


  0.055101  -1.963617  0.000000
  -1.963617  4.512084  0.000000
  0.000000  0.000000  0.000000


  -0.771546  -0.866338  0.000000
  -0.866338  3.497514  0.000000
  0.000000  0.000000  0.000000


  -0.680071  -1.041763  0.000000
  -1.041763  3.027270  0.000000
  0.000000  0.000000  0.000000


  -1.105584  -0.345864  0.000000
  -0.345864  2.655417  0.000000
  0.000000  0.000000  0.000000


  -1.074448  -0.470578  0.000000
  -0.470578  2.992590  0.000000
  0.000000  0.000000  0.000000


  -0.671638  -0.919078  0.000000
  -0.919078  3.709729  0.000000
  0.000000  0.000000  0.000000


  -0.349532  -1.444642  0.000000
  -1.444642  4.618173  0.000000
  0.000000  0.000000  0.000000


  -0.015979  -1.799909  0.000000
  -1.799909  5.056360  0.000000
  0.000000  0.000000  0.000000


  0.380249  -2.465377  0.000000
  -2.465377  5.335762  0.000000
  0.000000  0.000000  0.000000


  0.100938  -1.873663  0.000000
  -1.873663  5.241669  0.000000
  0.000000  0.000000  0.000000


  0.383638  -2.286110  0.000000
  -2.286110  5.774850  0.000000
  0.000000  0.000000  0.000000


  0.780960  -2.962193  0.000000
  -2.962193  6.094224  0.000000
  0.000000  0.000000  0.000000


  0.499930  -2.307344  0.000000
  -2.307344  5.890862  0.000000
  0.000000  0.000000  0.000000


  0.829733  -2.770472  0.000000
  -2.770472  6.468775  0.000000
  0.000000  0.000000  0.000000


  0.124336  -2.093787  0.000000
  -2.093787  4.816095  0.000000
  0.000000  0.000000  0.000000


  -0.244358  -1.490805  0.000000
  -1.490805  4.788253  0.000000
  0.000000  0.000000  0.000000


  -0.212590  -1.700284  0.000000
  -1.700284  4.357741  0.000000
  0.000000  0.000000  0.000000


  0.191134  -2.106087  0.000000
  -2.106087  4.983179  0.000000
  0.000000  0.000000  0.000000


  0.399494  -2.524896  0.000000
  -2.524896  5.582067  0.000000
  0.000000  0.000000  0.000000


  0.132137  -1.937055  0.000000
  -1.937055  5.495094  0.000000
  0.000000  0.000000  0.000000


  0.525326  -2.554099  0.000000
  -2.554099  5.709982  0.000000
  0.000000  0.000000  0.000000


  0.195112  -2.042361  0.000000
  -2.042361  5.706428  0.000000
  0.000000  0.000000  0.000000


  0.441182  -2.440794  0.000000
  -2.440794  6.220703  0.000000
  0.000000  0.000000  0.000000


  0.238920  -2.225210  0.000000
  -2.225210  5.300142  0.000000
  0.000000  0.000000  0.000000


  0.649378  -2.694486  0.000000
  -2.694486  5.988798  0.000000
  0.000000  0.000000  0.000000


  1.088684  -2.987157  0.000000
  -2.987157  6.352618  0.000000
  0.000000  0.000000  0.000000


  0.885020  -2.936826  0.000000
  -2.936826  6.234564  0.000000
  0.000000  0.000000  0.000000


  0.936839  -2.797872  0.000000
  -2.797872  6.483591  0.000000
  0.000000  0.000000  0.000000


  -0.814268  -0.999832  0.000000
  -0.999832  2.848514  0.000000
  0.000000  0.000000  0.000000


  -0.178716  -1.588123  0.000000
  -1.588123  4.980346  0.000000
  0.000000  0.000000  0.000000


  -0.083290  -1.750609  0.000000
  -1.750609  4.525515  0.000000
  0.000000  0.000000  0.000000


  -0.510864  -1.105754  0.000000
  -1.105754  4.205396  0.000000
  0.000000  0.000000  0.000000


  -0.457319  -1.199501  0.000000
  -1.199501  4.495507  0.000000
  0.000000  0.000000  0.000000


  -0.450414  -1.301106  0.000000
  -1.301106  3.749680  0.000000
  0.000000  0.000000  0.000000


  -0.912385  -0.648323  0.000000
  -0.648323  2.381350  0.000000
  0.000000  0.000000  0.000000


  -0.601834  -1.031682  0.000000
  -1.031682  3.985461  0.000000
  0.000000  0.000000  0.000000


  -0.478707  -1.189269  0.000000
  -1.189269  3.436563  0.000000
  0.000000  0.000000  0.000000


  -0.963803  -0.539536  0.000000
  -0.539536  3.204773  0.000000
  0.000000  0.000000  0.000000


  -0.601980  -1.138006  0.000000
  -1.138006  3.215601  0.000000
  0.000000  0.000000  0.000000


  -0.879009  -0.753650  0.000000
  -0.753650  2.713195  0.000000
  0.000000  0.000000  0.000000


  -0.880367  -0.658924  0.000000
  -0.658924  3.436065  0.000000
  0.000000  0.000000  0.000000


  -0.742590  -0.820767  0.000000
  -0.820767  2.916965  0.000000
  0.000000  0.000000  0.000000


  -1.171902  -0.164432  0.000000
  -0.164432  2.600264  0.000000
  0.000000  0.000000  0.000000


  -1.126007  -0.298394  0.000000
  -0.298394  2.950382  0.000000
  0.000000  0.000000  0.000000


  -1.062365  -0.569558  0.000000
  -0.569558  2.177701  0.000000
  0.000000  0.000000  0.000000


  -0.339022  -1.373595  0.000000
  -1.373595  3.953122  0.000000
  0.000000  0.000000  0.000000


  0.008870  -1.813167  0.000000
  -1.813167  4.708798  0.000000
  0.000000  0.000000  0.000000


  -0.938684  -0.458164  0.000000
  -0.458164  2.323435  0.000000
  0.000000  0.000000  0.000000


  -0.663559  -0.931520  0.000000
  -0.931520  3.149636  0.000000
  0.000000  0.000000  0.000000


  -0.987258  -0.381667  0.000000
  -0.381667  3.173449  0.000000
  0.000000  0.000000  0.000000


  -0.889885  -0.584455  0.000000
  -0.584455  2.663590  0.000000
  0.000000  0.000000  0.000000


  -0.573738  -1.015957  0.000000
  -1.015957  3.438622  0.000000
  0.000000  0.000000  0.000000


  -0.832133  -0.763626  0.000000
  -0.763626  3.301562  0.000000
  0.000000  0.000000  0.000000


  -0.473409  -1.402924  0.000000
  -1.402924  3.306000  0.000000
  0.000000  0.000000  0.000000


  -0.969321  -0.710495  0.000000
  -0.710495  3.112318  0.000000
  0.000000  0.000000  0.000000


  -0.547492  -1.274344  0.000000
  -1.274344  3.002767  0.000000
  0.000000  0.000000  0.000000


  -0.783848  -0.846484  0.000000
  -0.846484  2.411571  0.000000
  0.000000  0.000000  0.000000


  -0.766128  -0.726593  0.000000
  -0.726593  3.703160  0.000000
  0.000000  0.000000  0.000000


  -1.385090  -0.188467  0.000000
  -0.188467  2.257789  0.000000
  0.000000  0.000000  0.000000


  -1.295837  -0.078322  0.000000
  -0.078322  2.351974  0.000000
  0.000000  0.000000  0.000000


  -1.153367  -0.258205  0.000000
  -0.258205  1.820007  0.000000
  0.000000  0.000000  0.000000


  -1.572804  0.432966  0.000000
  0.432966  1.462929  0.000000
  0.000000  0.000000  0.000000


  -1.513351  0.286865  0.000000
  0.286865  1.808991  0.000000
  0.000000  0.000000  0.000000


  -1.280828  -0.170001  0.000000
  -0.170001  1.512369  0.000000
  0.000000  0.000000  0.000000


  -1.731819  0.549681  0.000000
  0.549681  1.233222  0.000000
  0.000000  0.000000  0.000000


  -1.470462  0.210949  0.000000
  0.210949  0.923147  0.000000
  0.000000  0.000000  0.000000


  -1.329266  0.100666  0.000000
  0.100666  1.172860  0.000000
  0.000000  0.000000  0.000000


  -1.056576  -0.373047  0.000000
  -0.373047  2.052073  0.000000
  0.000000  0.000000  0.000000


  -1.401461  0.186297  0.000000
  0.186297  2.095007  0.000000
  0.000000  0.000000  0.000000


  -1.357081  -0.024148  0.000000
  -0.024148  1.199142  0.000000
  0.000000  0.000000  0.000000


  -1.541758  0.360879  0.000000
  0.360879  0.559446  0.000000
  0.000000  0.000000  0.000000


  -1.272939  -0.304033  0.000000
  -0.304033  2.469142  0.000000
  0.000000  0.000000  0.000000


  -1.167111  -0.451029  0.000000
  -0.451029  2.006071  0.000000
  0.000000  0.000000  0.000000


  -1.543805  0.281159  0.000000
  0.281159  1.407600  0.000000
  0.000000  0.000000  0.000000


  0.724914  -2.657801  0.000000
  -2.657801  6.250015  0.000000
  0.000000  0.000000  0.000000


  1.238859  -3.402010  0.000000
  -3.402010  6.661523  0.000000
  0.000000  0.000000  0.000000


  -0.241237  -1.612393  0.000000
  -1.612393  4.055431  0.000000
  0.000000  0.000000  0.000000


  -0.865919  -0.758161  0.000000
  -0.758161  2.033591  0.000000
  0.000000  0.000000  0.000000


  -0.065314  -1.645037  0.000000
  -1.645037  5.204696  0.000000
  0.000000  0.000000  0.000000


  0.327630  -2.269933  0.000000
  -2.269933  5.465971  0.000000
  0.000000  0.000000  0.000000


  0.022118  -1.711217  0.000000
  -1.711217  5.399678  0.000000
  0.000000  0.000000  0.000000


  0.305956  -2.095209  0.000000
  -2.095209  5.898150  0.000000
  0.000000  0.000000  0.000000


  0.684484  -2.699827  0.000000
  -2.699827  6.158750  0.000000
  0.000000  0.000000  0.000000


  0.376188  -2.138791  0.000000
  -2.138791  6.084869  0.000000
  0.000000  0.000000  0.000000


  0.681526  -2.525269  0.000000
  -2.525269  6.553058  0.000000
  0.000000  0.000000  0.000000


  0.043115  -1.899101  0.000000
  -1.899101  5.001367  0.000000
  0.000000  0.000000  0.000000


  0.393724  -2.327738  0.000000
  -2.327738  5.684605  0.000000
  0.000000  0.000000  0.000000


  0.092218  -1.775640  0.000000
  -1.775640  5.599718  0.000000
  0.000000  0.000000  0.000000


  0.914093  -3.156785  0.000000
  -3.156785  7.033228  0.000000
  0.000000  0.000000  0.000000


  0.798172  -2.517646  0.000000
  -2.517646  6.537312  0.000000
  0.000000  0.000000  0.000000


  0.648196  -2.707037  0.000000
  -2.707037  6.352250  0.000000
  0.000000  0.000000  0.000000


  0.434837  -2.121944  0.000000
  -2.121944  6.134236  0.000000
  0.000000  0.000000  0.000000


  0.942965  -3.089404  0.000000
  -3.089404  6.991650  0.000000
  0.000000  0.000000  0.000000


  0.384299  -2.332199  0.000000
  -2.332199  5.860643  0.000000
  0.000000  0.000000  0.000000


  0.125077  -1.768946  0.000000
  -1.768946  5.692257  0.000000
  0.000000  0.000000  0.000000


  0.693759  -2.701369  0.000000
  -2.701369  6.407877  0.000000
  0.000000  0.000000  0.000000


  0.097657  -1.958717  0.000000
  -1.958717  5.405776  0.000000
  0.000000  0.000000  0.000000


  0.502838  -2.335111  0.000000
  -2.335111  5.913166  0.000000
  0.000000  0.000000  0.000000


  0.472960  -2.188189  0.000000
  -2.188189  6.293989  0.000000
  0.000000  0.000000  0.000000


  0.774510  -2.510591  0.000000
  -2.510591  6.744520  0.000000
  0.000000  0.000000  0.000000


  1.059134  -3.179335  0.000000
  -3.179335  7.164938  0.000000
  0.000000  0.000000  0.000000


  0.763441  -2.790908  0.000000
  -2.790908  6.669054  0.000000
  0.000000  0.000000  0.000000


  0.491691  -2.310003  0.000000
  -2.310003  6.719396  0.000000
  0.000000  0.000000  0.000000


  0.914217  -2.625661  0.000000
  -2.625661  6.849980  0.000000
  0.000000  0.000000  0.000000


  1.032561  -2.745372  0.000000
  -2.745372  6.643079  0.000000
  0.000000  0.000000  0.000000


  -0.076795  -1.396045  0.000000
  -1.396045  4.972457  0.000000
  0.000000  0.000000  0.000000


  -0.087150  -1.397333  0.000000
  -1.397333  5.122566  0.000000
  0.000000  0.000000  0.000000


  0.178691  -1.803306  0.000000
  -1.803306  5.883460  0.000000
  0.000000  0.000000  0.000000


  1.129492  -2.910387  0.000000
  -2.910387  7.163357  0.000000
  0.000000  0.000000  0.000000


  1.282233  -3.498289  0.000000
  -3.498289  7.683661  0.000000
  0.000000  0.000000  0.000000


  0.064391  -1.959859  0.000000
  -1.959859  5.256346  0.000000
  0.000000  0.000000  0.000000


  -0.240234  -1.362596  0.000000
  -1.362596  4.886451  0.000000
  0.000000  0.000000  0.000000


  -0.157921  -1.498693  0.000000
  -1.498693  4.439697  0.000000
  0.000000  0.000000  0.000000


  -0.623162  -0.947226  0.000000
  -0.947226  4.216464  0.000000
  0.000000  0.000000  0.000000


  -0.545221  -1.071201  0.000000
  -1.071201  4.561363  0.000000
  0.000000  0.000000  0.000000


  -0.227723  -1.443310  0.000000
  -1.443310  4.208952  0.000000
  0.000000  0.000000  0.000000


  -0.457320  -1.077428  0.000000
  -1.077428  3.697317  0.000000
  0.000000  0.000000  0.000000


  -0.359338  -1.285582  0.000000
  -1.285582  4.701447  0.000000
  0.000000  0.000000  0.000000


  -0.896875  -0.489827  0.000000
  -0.489827  3.442155  0.000000
  0.000000  0.000000  0.000000


  -0.816902  -0.635201  0.000000
  -0.635201  3.780043  0.000000
  0.000000  0.000000  0.000000


  -0.769231  -0.667176  0.000000
  -0.667176  2.894250  0.000000
  0.000000  0.000000  0.000000


  -0.360384  -1.194241  0.000000
  -1.194241  3.928387  0.000000
  0.000000  0.000000  0.000000


  -0.113522  -1.603379  0.000000
  -1.603379  4.672005  0.000000
  0.000000  0.000000  0.000000


  -0.407692  -1.074025  0.000000
  -1.074025  4.665494  0.000000
  0.000000  0.000000  0.000000


  -0.400660  -1.250692  0.000000
  -1.250692  4.375844  0.000000
  0.000000  0.000000  0.000000


  -0.105687  -1.598602  0.000000
  -1.598602  4.803340  0.000000
  0.000000  0.000000  0.000000


  -0.332504  -1.063803  0.000000
  -1.063803  4.708198  0.000000
  0.000000  0.000000  0.000000


  -0.724367  -0.782024  0.000000
  -0.782024  4.086165  0.000000
  0.000000  0.000000  0.000000


  -0.603227  -0.898724  0.000000
  -0.898724  3.450035  0.000000
  0.000000  0.000000  0.000000


  -0.336709  -1.265869  0.000000
  -1.265869  4.412048  0.000000
  0.000000  0.000000  0.000000


  -0.010913  -1.613215  0.000000
  -1.613215  4.927829  0.000000
  0.000000  0.000000  0.000000


  -0.865706  -0.264605  0.000000
  -0.264605  3.016493  0.000000
  0.000000  0.000000  0.000000


  -0.868457  -0.748537  0.000000
  -0.748537  3.983566  0.000000
  0.000000  0.000000  0.000000


  -0.483882  -0.699401  0.000000
  -0.699401  3.919632  0.000000
  0.000000  0.000000  0.000000


  -0.720790  -0.778325  0.000000
  -0.778325  3.283379  0.000000
  0.000000  0.000000  0.000000


  -1.060718  -0.249088  0.000000
  -0.249088  3.025520  0.000000
  0.000000  0.000000  0.000000


  -0.872962  -0.334423  0.000000
  -0.334423  2.260975  0.000000
  0.000000  0.000000  0.000000


  -1.380273  0.152039  0.000000
  0.152039  2.275058  0.000000
  0.000000  0.000000  0.000000


  -1.108713  -0.373552  0.000000
  -0.373552  3.010959  0.000000
  0.000000  0.000000  0.000000


  -0.465460  -0.770619  0.000000
  -0.770619  4.115923  0.000000
  0.000000  0.000000  0.000000


  -0.290382  -1.145654  0.000000
  -1.145654  4.915964  0.000000
  0.000000  0.000000  0.000000


  -0.070818  -1.469057  0.000000
  -1.469057  5.342749  0.000000
  0.000000  0.000000  0.000000


  0.252903  -2.081881  0.000000
  -2.081881  5.738053  0.000000
  0.000000  0.000000  0.000000


  0.063978  -1.528906  0.000000
  -1.528906  5.441902  0.000000
  0.000000  0.000000  0.000000


  0.338166  -1.906736  0.000000
  -1.906736  6.007867  0.000000
  0.000000  0.000000  0.000000


  -0.992878  -0.220074  0.000000
  -0.220074  2.003929  0.000000
  0.000000  0.000000  0.000000


  -1.108094  0.191276  0.000000
  0.191276  1.498136  0.000000
  0.000000  0.000000  0.000000


  -1.195660  -0.030826  0.000000
  -0.030826  2.630677  0.000000
  0.000000  0.000000  0.000000


  -0.565534  -0.987852  0.000000
  -0.987852  3.842167  0.000000
  0.000000  0.000000  0.000000


  -0.281033  -1.323461  0.000000
  -1.323461  4.532252  0.000000
  0.000000  0.000000  0.000000


  0.046450  -1.710775  0.000000
  -1.710775  5.158682  0.000000
  0.000000  0.000000  0.000000


  -0.200962  -1.159508  0.000000
  -1.159508  5.026182  0.000000
  0.000000  0.000000  0.000000


  -0.237253  -1.346132  0.000000
  -1.346132  4.740652  0.000000
  0.000000  0.000000  0.000000


  0.136324  -1.722587  0.000000
  -1.722587  5.282213  0.000000
  0.000000  0.000000  0.000000


  -0.509957  -0.773481  0.000000
  -0.773481  4.341767  0.000000
  0.000000  0.000000  0.000000


  -0.428318  -0.806066  0.000000
  -0.806066  4.464899  0.000000
  0.000000  0.000000  0.000000


  -0.113675  -1.258380  0.000000
  -1.258380  5.215558  0.000000
  0.000000  0.000000  0.000000


  0.009617  -1.647754  0.000000
  -1.647754  5.863481  0.000000
  0.000000  0.000000  0.000000


  0.275223  -2.081931  0.000000
  -2.081931  5.887003  0.000000
  0.000000  0.000000  0.000000


  0.415854  -1.957460  0.000000
  -1.957460  5.995974  0.000000
  0.000000  0.000000  0.000000


  -1.735800  0.667123  0.000000
  0.667123  1.426703  0.000000
  0.000000  0.000000  0.000000


  -1.458844  0.441575  0.000000
  0.441575  1.911654  0.000000
  0.000000  0.000000  0.000000


  -0.068662  -1.417236  0.000000
  -1.417236  4.848763  0.000000
  0.000000  0.000000  0.000000


  -1.502329  0.165613  0.000000
  0.165613  1.795224  0.000000
  0.000000  0.000000  0.000000


  0.164833  -1.983319  0.000000
  -1.983319  5.515341  0.000000
  0.000000  0.000000  0.000000


  0.177330  -1.825682  0.000000
  -1.825682  5.704404  0.000000
  0.000000  0.000000  0.000000


  -1.917530  0.913656  0.000000
  0.913656  0.569709  0.000000
  0.000000  0.000000  0.000000


  -1.725028  0.727738  0.000000
  0.727738  -0.040815  0.000000
  0.000000  0.000000  0.000000


  -2.193155  1.441906  0.000000
  1.441906  -0.388663  0.000000
  0.000000  0.000000  0.000000


  -2.086313  1.269446  0.000000
  1.269446  -0.010450  0.000000
  0.000000  0.000000  0.000000


  -1.879156  0.833572  0.000000
  0.833572  -0.324840  0.000000
  0.000000  0.000000  0.000000


  -2.007759  1.225472  0.000000
  1.225472  -1.019855  0.000000
  0.000000  0.000000  0.000000


  -1.858213  1.076384  0.000000
  1.076384  -0.716779  0.000000
  0.000000  0.000000  0.000000


  -1.626216  0.573491  0.000000
  0.573491  0.249825  0.000000
  0.000000  0.000000  0.000000


  -1.932512  1.137173  0.000000
  1.137173  0.268134  0.000000
  0.000000  0.000000  0.000000


  -1.776990  0.910486  0.000000
  0.910486  -0.333000  0.000000
  0.000000  0.000000  0.000000


  -1.518017  0.444921  0.000000
  0.444921  0.597061  0.000000
  0.000000  0.000000  0.000000


  -2.202131  1.600011  0.000000
  1.600011  -0.680771  0.000000
  0.000000  0.000000  0.000000


  -1.967641  1.404434  0.000000
  1.404434  -1.346877  0.000000
  0.000000  0.000000  0.000000


  -2.407440  2.120581  0.000000
  2.120581  -1.699825  0.000000
  0.000000  0.000000  0.000000


  -2.292366  1.906976  0.000000
  1.906976  -1.292270  0.000000
  0.000000  0.000000  0.000000


  -2.118620  1.568295  0.000000
  1.568295  -1.702656  0.000000
  0.000000  0.000000  0.000000


  -2.577908  2.281981  0.000000
  2.281981  -1.996518  0.000000
  0.000000  0.000000  0.000000


  -2.181813  1.925573  0.000000
  1.925573  -2.324130  0.000000
  0.000000  0.000000  0.000000


  -1.858747  1.234337  0.000000
  1.234337  -1.024961  0.000000
  0.000000  0.000000  0.000000


  -2.320322  2.064347  0.000000
  2.064347  -2.793635  0.000000
  0.000000  0.000000  0.000000


  -2.035224  1.690207  0.000000
  1.690207  -2.064403  0.000000
  0.000000  0.000000  0.000000


  -2.231204  1.736953  0.000000
  1.736953  -2.114907  0.000000
  0.000000  0.000000  0.000000


  -2.059699  1.442488  0.000000
  1.442488  -0.313854  0.000000
  0.000000  0.000000  0.000000


  -1.653775  0.786524  0.000000
  0.786524  -0.020757  0.000000
  0.000000  0.000000  0.000000


  -1.941952  1.313592  0.000000
  1.313592  0.009866  0.000000
  0.000000  0.000000  0.000000


  -1.810860  0.976134  0.000000
  0.976134  0.585258  0.000000
  0.000000  0.000000  0.000000


  -1.419671  0.302746  0.000000
  0.302746  0.897008  0.000000
  0.000000  0.000000  0.000000


  -1.727949  0.867701  0.000000
  0.867701  0.981865  0.000000
  0.000000  0.000000  0.000000


  -1.577678  0.506874  0.000000
  0.506874  1.516207  0.000000
  0.000000  0.000000  0.000000


  -1.801019  1.092471  0.000000
  1.092471  -0.570237  0.000000
  0.000000  0.000000  0.000000


  -1.617269  0.565716  0.000000
  0.565716  0.375575  0.000000
  0.000000  0.000000  0.000000


  -1.688837  0.651173  0.000000
  0.651173  1.198417  0.000000
  0.000000  0.000000  0.000000


  -1.382839  0.060760  0.000000
  0.060760  2.110509  0.000000
  0.000000  0.000000  0.000000


  -0.406878  -0.986759  0.000000
  -0.986759  4.142586  0.000000
  0.000000  0.000000  0.000000


  1.093558  -3.217453  0.000000
  -3.217453  6.964438  0.000000
  0.000000  0.000000  0.000000


  0.566476  -2.495430  0.000000
  -2.495430  6.466238  0.000000
  0.000000  0.000000  0.000000


  1.006583  -3.212259  0.000000
  -3.212259  6.861099  0.000000
  0.000000  0.000000  0.000000


  -2.783758  2.065391  0.000000
  2.065391  -1.534462  0.000000
  0.000000  0.000000  0.000000


  -1.779733  0.799392  0.000000
  0.799392  0.890023  0.000000
  0.000000  0.000000  0.000000


  -2.560682  0.983476  0.000000
  0.983476  -1.031519  0.000000
  0.000000  0.000000  0.000000


  -2.770833  1.177484  0.000000
  1.177484  -0.466893  0.000000
  0.000000  0.000000  0.000000


  -2.051775  0.365885  0.000000
  0.365885  -0.177379  0.000000
  0.000000  0.000000  0.000000


  -2.224971  0.505447  0.000000
  0.505447  0.332716  0.000000
  0.000000  0.000000  0.000000


  -1.608162  -0.217082  0.000000
  -0.217082  0.382438  0.000000
  0.000000  0.000000  0.000000


  -1.634747  -0.377312  0.000000
  -0.377312  0.742836  0.000000
  0.000000  0.000000  0.000000


  -1.785174  -0.035438  0.000000
  -0.035438  1.069535  0.000000
  0.000000  0.000000  0.000000


  -2.306193  0.652630  0.000000
  0.652630  0.286832  0.000000
  0.000000  0.000000  0.000000


  -1.805282  -0.225819  0.000000
  -0.225819  0.385818  0.000000
  0.000000  0.000000  0.000000


  -1.696915  0.041099  0.000000
  0.041099  0.767489  0.000000
  0.000000  0.000000  0.000000


  -2.423164  0.684353  0.000000
  0.684353  0.124329  0.000000
  0.000000  0.000000  0.000000


  -1.186802  -0.879403  0.000000
  -0.879403  1.376164  0.000000
  0.000000  0.000000  0.000000


  -1.167694  -0.693145  0.000000
  -0.693145  1.736080  0.000000
  0.000000  0.000000  0.000000


  -0.715254  -1.630912  0.000000
  -1.630912  2.330958  0.000000
  0.000000  0.000000  0.000000


  -0.584438  -1.529542  0.000000
  -1.529542  1.975991  0.000000
  0.000000  0.000000  0.000000


  -1.321068  -0.891944  0.000000
  -0.891944  1.299225  0.000000
  0.000000  0.000000  0.000000


  -1.840115  -0.117699  0.000000
  -0.117699  0.183453  0.000000
  0.000000  0.000000  0.000000


  -2.336383  0.490051  0.000000
  0.490051  -0.530829  0.000000
  0.000000  0.000000  0.000000


  -2.912894  1.495337  0.000000
  1.495337  -0.926219  0.000000
  0.000000  0.000000  0.000000


  -2.593749  0.564066  0.000000
  0.564066  -0.497509  0.000000
  0.000000  0.000000  0.000000


  -2.492115  0.846716  0.000000
  0.846716  -0.120719  0.000000
  0.000000  0.000000  0.000000


  -1.973865  -0.136265  0.000000
  -0.136265  0.207210  0.000000
  0.000000  0.000000  0.000000


  -2.957570  1.523168  0.000000
  1.523168  -1.065566  0.000000
  0.000000  0.000000  0.000000


  -1.746130  0.120654  0.000000
  0.120654  0.478050  0.000000
  0.000000  0.000000  0.000000


  -2.680122  0.845829  0.000000
  0.845829  -0.089719  0.000000
  0.000000  0.000000  0.000000


  -1.341846  -0.821031  0.000000
  -0.821031  1.147891  0.000000
  0.000000  0.000000  0.000000


  -1.379902  -0.864573  0.000000
  -0.864573  1.090923  0.000000
  0.000000  0.000000  0.000000


  -2.011977  -0.167790  0.000000
  -0.167790  0.354671  0.000000
  0.000000  0.000000  0.000000


  -2.598924  0.642498  0.000000
  0.642498  -0.745896  0.000000
  0.000000  0.000000  0.000000


  -3.121002  1.624237  0.000000
  1.624237  -1.182489  0.000000
  0.000000  0.000000  0.000000


  -1.295826  -0.605397  0.000000
  -0.605397  1.584761  0.000000
  0.000000  0.000000  0.000000


  -2.705281  0.627480  0.000000
  0.627480  -0.717424  0.000000
  0.000000  0.000000  0.000000


  -3.196492  1.393217  0.000000
  1.393217  -1.636424  0.000000
  0.000000  0.000000  0.000000


  -0.713888  -1.518202  0.000000
  -1.518202  1.960808  0.000000
  0.000000  0.000000  0.000000


  -1.213815  -0.614675  0.000000
  -0.614675  1.709544  0.000000
  0.000000  0.000000  0.000000


  -1.187024  -0.552082  0.000000
  -0.552082  1.435190  0.000000
  0.000000  0.000000  0.000000


  -3.809530  2.458674  0.000000
  2.458674  -2.165820  0.000000
  0.000000  0.000000  0.000000


  -0.441535  -1.255761  0.000000
  -1.255761  2.208817  0.000000
  0.000000  0.000000  0.000000


  -0.207186  -2.223381  0.000000
  -2.223381  2.942975  0.000000
  0.000000  0.000000  0.000000


  -0.095203  -2.189857  0.000000
  -2.189857  2.749613  0.000000
  0.000000  0.000000  0.000000


  -1.008053  -0.745512  0.000000
  -0.745512  1.829536  0.000000
  0.000000  0.000000  0.000000


  -0.515047  -1.597624  0.000000
  -1.597624  2.236741  0.000000
  0.000000  0.000000  0.000000


  -0.668467  -1.391482  0.000000
  -1.391482  3.115218  0.000000
  0.000000  0.000000  0.000000


  -0.021992  -2.279601  0.000000
  -2.279601  3.020018  0.000000
  0.000000  0.000000  0.000000


  -0.107477  -1.452193  0.000000
  -1.452193  2.160953  0.000000
  0.000000  0.000000  0.000000


  -0.274627  -1.391110  0.000000
  -1.391110  2.957684  0.000000
  0.000000  0.000000  0.000000


  0.047408  -2.332089  0.000000
  -2.332089  3.407655  0.000000
  0.000000  0.000000  0.000000


  -0.332546  -1.298193  0.000000
  -1.298193  2.174141  0.000000
  0.000000  0.000000  0.000000


  -0.412197  -2.154873  0.000000
  -2.154873  3.359718  0.000000
  0.000000  0.000000  0.000000


  -2.665901  0.873882  0.000000
  0.873882  -0.320185  0.000000
  0.000000  0.000000  0.000000


  -1.098629  -0.982042  0.000000
  -0.982042  1.402702  0.000000
  0.000000  0.000000  0.000000


  -3.069415  1.257864  0.000000
  1.257864  -1.463998  0.000000
  0.000000  0.000000  0.000000


  -3.556056  2.250586  0.000000
  2.250586  -1.893482  0.000000
  0.000000  0.000000  0.000000


  -1.843055  0.105516  0.000000
  0.105516  0.718485  0.000000
  0.000000  0.000000  0.000000


  0.030697  -1.945073  0.000000
  -1.945073  3.078191  0.000000
  0.000000  0.000000  0.000000


  0.215156  -1.899213  0.000000
  -1.899213  3.156667  0.000000
  0.000000  0.000000  0.000000


  -0.427958  -1.264198  0.000000
  -1.264198  2.166262  0.000000
  0.000000  0.000000  0.000000


  -3.225356  1.686348  0.000000
  1.686348  -1.315650  0.000000
  0.000000  0.000000  0.000000


  -3.381408  1.428520  0.000000
  1.428520  -1.658905  0.000000
  0.000000  0.000000  0.000000


  -5.442359  5.994763  0.000000
  5.994763  -7.940026  0.000000
  0.000000  0.000000  0.000000


  -1.052642  -0.664925  0.000000
  -0.664925  2.509577  0.000000
  0.000000  0.000000  0.000000


  -0.918719  -1.196133  0.000000
  -1.196133  1.963620  0.000000
  0.000000  0.000000  0.000000


  0.009184  -1.938294  0.000000
  -1.938294  4.614878  0.000000
  0.000000  0.000000  0.000000


  0.574127  -2.439673  0.000000
  -2.439673  6.149165  0.000000
  0.000000  0.000000  0.000000


  0.972117  -2.980120  0.000000
  -2.980120  6.121483  0.000000
  0.000000  0.000000  0.000000


  -1.299637  0.044980  0.000000
  0.044980  2.357533  0.000000
  0.000000  0.000000  0.000000


  -1.117548  -0.117911  0.000000
  -0.117911  1.788994  0.000000
  0.000000  0.000000  0.000000


  -1.526943  0.416393  0.000000
  0.416393  1.829147  0.000000
  0.000000  0.000000  0.000000


  1.866181  -3.751225  0.000000
  -3.751225  7.410740  0.000000
  0.000000  0.000000  0.000000


  1.553631  -3.916880  0.000000
  -3.916880  7.323075  0.000000
  0.000000  0.000000  0.000000


  1.066347  -3.311817  0.000000
  -3.311817  7.352027  0.000000
  0.000000  0.000000  0.000000


  1.822691  -3.741872  0.000000
  -3.741872  7.175000  0.000000
  0.000000  0.000000  0.000000


  -0.043979  -0.003596  0.000000
  -0.003596  2.591844  0.000000
  0.000000  0.000000  0.000000


  -0.209225  0.185468  0.000000
  0.185468  2.644490  0.000000
  0.000000  0.000000  0.000000


  -0.110243  0.240447  0.000000
  0.240447  2.274000  0.000000
  0.000000  0.000000  0.000000


  -0.251359  0.388395  0.000000
  0.388395  2.319219  0.000000
  0.000000  0.000000  0.000000


  -0.194114  0.213775  0.000000
  0.213775  2.464340  0.000000
  0.000000  0.000000  0.000000


  -0.167635  0.412995  0.000000
  0.412995  2.119021  0.000000
  0.000000  0.000000  0.000000


  -0.148697  0.446593  0.000000
  0.446593  1.964692  0.000000
  0.000000  0.000000  0.000000


  -0.078882  0.292348  0.000000
  0.292348  2.082482  0.000000
  0.000000  0.000000  0.000000


  -0.038758  0.030829  0.000000
  0.030829  2.399212  0.000000
  0.000000  0.000000  0.000000


  -0.139974  0.089194  0.000000
  0.089194  2.546466  0.000000
  0.000000  0.000000  0.000000


  0.134795  -0.874764  0.000000
  -0.874764  4.662774  0.000000
  0.000000  0.000000  0.000000


  -0.191810  -0.726682  0.000000
  -0.726682  4.760518  0.000000
  0.000000  0.000000  0.000000


  -0.023071  -0.629267  0.000000
  -0.629267  4.379093  0.000000
  0.000000  0.000000  0.000000


  -0.044973  -0.528899  0.000000
  -0.528899  4.229115  0.000000
  0.000000  0.000000  0.000000


  2.619116  -4.533858  0.000000
  -4.533858  7.529430  0.000000
  0.000000  0.000000  0.000000


  1.827048  -4.307757  0.000000
  -4.307757  7.739876  0.000000
  0.000000  0.000000  0.000000


  2.120976  -4.058188  0.000000
  -4.058188  6.833335  0.000000
  0.000000  0.000000  0.000000


  2.662108  -4.568766  0.000000
  -4.568766  7.672243  0.000000
  0.000000  0.000000  0.000000


  3.085503  0.261709  0.000000
  0.261709  -0.877887  0.000000
  0.000000  0.000000  0.000000


  0.073470  -0.712057  0.000000
  -0.712057  4.345138  0.000000
  0.000000  0.000000  0.000000


  -0.208527  -0.543332  0.000000
  -0.543332  4.440422  0.000000
  0.000000  0.000000  0.000000


  -0.067222  -0.450374  0.000000
  -0.450374  4.076892  0.000000
  0.000000  0.000000  0.000000


  -0.201924  -0.633600  0.000000
  -0.633600  4.597697  0.000000
  0.000000  0.000000  0.000000


  -0.343322  -0.336634  0.000000
  -0.336634  4.143857  0.000000
  0.000000  0.000000  0.000000


  0.101125  -0.781205  0.000000
  -0.781205  4.506515  0.000000
  0.000000  0.000000  0.000000


  -0.183182  -0.263368  0.000000
  -0.263368  3.779689  0.000000
  0.000000  0.000000  0.000000


  -0.200531  -0.158344  0.000000
  -0.158344  3.636746  0.000000
  0.000000  0.000000  0.000000


  -0.055588  -0.359997  0.000000
  -0.359997  3.914416  0.000000
  0.000000  0.000000  0.000000


  -0.479814  -0.144825  0.000000
  -0.144825  3.844066  0.000000
  0.000000  0.000000  0.000000


  -0.359387  -0.248079  0.000000
  -0.248079  3.985983  0.000000
  0.000000  0.000000  0.000000


  -0.223990  -0.083255  0.000000
  -0.083255  3.507308  0.000000
  0.000000  0.000000  0.000000


  -0.473929  0.002503  0.000000
  0.002503  3.562895  0.000000
  0.000000  0.000000  0.000000


  -0.387548  -0.158551  0.000000
  -0.158551  3.834639  0.000000
  0.000000  0.000000  0.000000


  -0.350355  -0.425939  0.000000
  -0.425939  4.304105  0.000000
  0.000000  0.000000  0.000000


  -0.170574  -0.340656  0.000000
  -0.340656  3.918773  0.000000
  0.000000  0.000000  0.000000


  -0.340993  -0.514482  0.000000
  -0.514482  4.457159  0.000000
  0.000000  0.000000  0.000000


  -0.467395  -0.246914  0.000000
  -0.246914  3.986918  0.000000
  0.000000  0.000000  0.000000


  -0.152743  -0.421845  0.000000
  -0.421845  4.055900  0.000000
  0.000000  0.000000  0.000000


  -0.323520  -0.608743  0.000000
  -0.608743  4.608309  0.000000
  0.000000  0.000000  0.000000


  -0.464292  -0.333564  0.000000
  -0.333564  4.123245  0.000000
  0.000000  0.000000  0.000000


  -0.311666  -0.125603  0.000000
  -0.125603  3.571999  0.000000
  0.000000  0.000000  0.000000


  -0.596860  -0.056852  0.000000
  -0.056852  3.626894  0.000000
  0.000000  0.000000  0.000000


  -0.322967  -0.054563  0.000000
  -0.054563  3.450408  0.000000
  0.000000  0.000000  0.000000


  -0.593110  0.031551  0.000000
  0.031551  3.506092  0.000000
  0.000000  0.000000  0.000000


  -0.450085  0.142107  0.000000
  0.142107  3.087885  0.000000
  0.000000  0.000000  0.000000


  -0.711184  0.206705  0.000000
  0.206705  3.135942  0.000000
  0.000000  0.000000  0.000000


  -0.560232  0.325220  0.000000
  0.325220  2.702058  0.000000
  0.000000  0.000000  0.000000


  -0.565559  0.411031  0.000000
  0.411031  2.609173  0.000000
  0.000000  0.000000  0.000000


  -0.446191  0.221325  0.000000
  0.221325  2.984698  0.000000
  0.000000  0.000000  0.000000


  -0.438668  0.069108  0.000000
  0.069108  3.200960  0.000000
  0.000000  0.000000  0.000000


  -0.735488  0.135910  0.000000
  0.135910  3.254303  0.000000
  0.000000  0.000000  0.000000


  -0.562440  0.258539  0.000000
  0.258539  2.803037  0.000000
  0.000000  0.000000  0.000000


  -0.742391  0.059201  0.000000
  0.059201  3.379706  0.000000
  0.000000  0.000000  0.000000


  -0.845199  0.306482  0.000000
  0.306482  2.845535  0.000000
  0.000000  0.000000  0.000000


  -0.812407  0.439489  0.000000
  0.439489  2.641589  0.000000
  0.000000  0.000000  0.000000


  -0.477311  -0.072489  0.000000
  -0.072489  3.695791  0.000000
  0.000000  0.000000  0.000000


  -0.837948  0.385967  0.000000
  0.385967  2.744944  0.000000
  0.000000  0.000000  0.000000


  -0.702559  0.267890  0.000000
  0.267890  3.024279  0.000000
  0.000000  0.000000  0.000000


  -0.555197  0.468963  0.000000
  0.468963  2.516385  0.000000
  0.000000  0.000000  0.000000


  -0.790088  0.504543  0.000000
  0.504543  2.549366  0.000000
  0.000000  0.000000  0.000000


  -0.680149  0.328164  0.000000
  0.328164  2.917088  0.000000
  0.000000  0.000000  0.000000


  0.018655  -0.733812  0.000000
  -0.733812  4.536704  0.000000
  0.000000  0.000000  0.000000


  -0.178902  -0.820899  0.000000
  -0.820899  4.933574  0.000000
  0.000000  0.000000  0.000000


  -0.149462  -0.902618  0.000000
  -0.902618  5.091484  0.000000
  0.000000  0.000000  0.000000


  0.153218  -0.944683  0.000000
  -0.944683  4.843385  0.000000
  0.000000  0.000000  0.000000


  0.157171  -1.022278  0.000000
  -1.022278  5.032172  0.000000
  0.000000  0.000000  0.000000


  0.084880  -1.386457  0.000000
  -1.386457  5.625771  0.000000
  0.000000  0.000000  0.000000


  0.097427  -0.851523  0.000000
  -0.851523  4.694234  0.000000
  0.000000  0.000000  0.000000


  -0.599271  0.107803  0.000000
  0.107803  3.371542  0.000000
  0.000000  0.000000  0.000000


  -0.437596  0.285273  0.000000
  0.285273  2.874804  0.000000
  0.000000  0.000000  0.000000


  -0.587803  0.175873  0.000000
  0.175873  3.249288  0.000000
  0.000000  0.000000  0.000000


  -0.431816  0.333775  0.000000
  0.333775  2.765044  0.000000
  0.000000  0.000000  0.000000


  -0.335280  0.101688  0.000000
  0.101688  3.198267  0.000000
  0.000000  0.000000  0.000000


  -0.676137  0.423952  0.000000
  0.423952  2.807782  0.000000
  0.000000  0.000000  0.000000


  -0.570737  0.243917  0.000000
  0.243917  3.118399  0.000000
  0.000000  0.000000  0.000000


  -0.548478  0.511932  0.000000
  0.511932  2.425042  0.000000
  0.000000  0.000000  0.000000


  -0.761410  0.568196  0.000000
  0.568196  2.461847  0.000000
  0.000000  0.000000  0.000000


  -0.649034  0.684955  0.000000
  0.684955  2.044049  0.000000
  0.000000  0.000000  0.000000


  -0.629160  0.744594  0.000000
  0.744594  1.976298  0.000000
  0.000000  0.000000  0.000000


  -0.856332  0.716355  0.000000
  0.716355  2.071228  0.000000
  0.000000  0.000000  0.000000


  -0.731754  0.841358  0.000000
  0.841358  1.640691  0.000000
  0.000000  0.000000  0.000000


  -0.721077  0.906083  0.000000
  0.906083  1.591534  0.000000
  0.000000  0.000000  0.000000


  -0.828904  0.754686  0.000000
  0.754686  1.994437  0.000000
  0.000000  0.000000  0.000000


  -0.692614  0.945105  0.000000
  0.945105  1.531705  0.000000
  0.000000  0.000000  0.000000


  -0.736604  0.603132  0.000000
  0.603132  2.363008  0.000000
  0.000000  0.000000  0.000000


  -0.873328  0.937622  0.000000
  0.937622  1.539759  0.000000
  0.000000  0.000000  0.000000


  -0.788366  0.791369  0.000000
  0.791369  1.927349  0.000000
  0.000000  0.000000  0.000000


  -0.520018  0.567362  0.000000
  0.567362  2.327129  0.000000
  0.000000  0.000000  0.000000


  -0.651959  0.461851  0.000000
  0.461851  2.701002  0.000000
  0.000000  0.000000  0.000000


  -0.503860  0.606993  0.000000
  0.606993  2.245469  0.000000
  0.000000  0.000000  0.000000


  -0.427981  0.399880  0.000000
  0.399880  2.651904  0.000000
  0.000000  0.000000  0.000000


  -0.552111  0.302661  0.000000
  0.302661  3.001567  0.000000
  0.000000  0.000000  0.000000


  -0.411406  0.443769  0.000000
  0.443769  2.539590  0.000000
  0.000000  0.000000  0.000000


  -0.329480  0.227760  0.000000
  0.227760  2.949423  0.000000
  0.000000  0.000000  0.000000


  -0.335108  0.165452  0.000000
  0.165452  3.068545  0.000000
  0.000000  0.000000  0.000000


  -0.960029  0.872999  0.000000
  0.872999  1.665644  0.000000
  0.000000  0.000000  0.000000


  -0.714522  0.660477  0.000000
  0.660477  2.274533  0.000000
  0.000000  0.000000  0.000000


  -0.574063  0.821986  0.000000
  0.821986  1.830290  0.000000
  0.000000  0.000000  0.000000


  -0.764748  0.860005  0.000000
  0.860005  1.852841  0.000000
  0.000000  0.000000  0.000000


  -0.673471  0.703044  0.000000
  0.703044  2.171251  0.000000
  0.000000  0.000000  0.000000


  -0.605372  0.789795  0.000000
  0.789795  1.912276  0.000000
  0.000000  0.000000  0.000000


  -0.627403  0.524530  0.000000
  0.524530  2.582344  0.000000
  0.000000  0.000000  0.000000


  -0.485075  0.666938  0.000000
  0.666938  2.137779  0.000000
  0.000000  0.000000  0.000000


  -0.590986  0.561432  0.000000
  0.561432  2.476314  0.000000
  0.000000  0.000000  0.000000


  -0.456212  0.701186  0.000000
  0.701186  2.045841  0.000000
  0.000000  0.000000  0.000000


  -0.405909  0.506015  0.000000
  0.506015  2.433183  0.000000
  0.000000  0.000000  0.000000


  -0.666191  0.965114  0.000000
  0.965114  1.476526  0.000000
  0.000000  0.000000  0.000000


  -0.831707  0.981521  0.000000
  0.981521  1.493335  0.000000
  0.000000  0.000000  0.000000


  -0.743773  1.109253  0.000000
  1.109253  1.090173  0.000000
  0.000000  0.000000  0.000000


  -0.711544  1.149091  0.000000
  1.149091  1.067643  0.000000
  0.000000  0.000000  0.000000


  -0.901817  1.098630  0.000000
  1.098630  1.094511  0.000000
  0.000000  0.000000  0.000000


  -0.803893  1.238517  0.000000
  1.238517  0.670725  0.000000
  0.000000  0.000000  0.000000


  -0.777950  1.276933  0.000000
  1.276933  0.663205  0.000000
  0.000000  0.000000  0.000000


  -0.648542  0.766324  0.000000
  0.766324  2.081414  0.000000
  0.000000  0.000000  0.000000


  -0.518087  0.348860  0.000000
  0.348860  2.877815  0.000000
  0.000000  0.000000  0.000000


  -0.326482  0.279957  0.000000
  0.279957  2.832524  0.000000
  0.000000  0.000000  0.000000


  -0.436109  0.192027  0.000000
  0.192027  3.155052  0.000000
  0.000000  0.000000  0.000000


  -0.440147  0.126692  0.000000
  0.126692  3.278673  0.000000
  0.000000  0.000000  0.000000


  -0.237737  0.051613  0.000000
  0.051613  3.228708  0.000000
  0.000000  0.000000  0.000000


  -0.333515  -0.074716  0.000000
  -0.074716  3.514419  0.000000
  0.000000  0.000000  0.000000


  -0.365492  -0.027096  0.000000
  -0.027096  3.626276  0.000000
  0.000000  0.000000  0.000000


  -0.091264  -0.263640  0.000000
  -0.263640  3.589455  0.000000
  0.000000  0.000000  0.000000


  -0.202735  -0.040190  0.000000
  -0.040190  3.521585  0.000000
  0.000000  0.000000  0.000000


  -0.858794  1.114296  0.000000
  1.114296  1.059505  0.000000
  0.000000  0.000000  0.000000


  -0.735989  1.291879  0.000000
  1.291879  0.655975  0.000000
  0.000000  0.000000  0.000000


  -0.869033  1.244064  0.000000
  1.244064  0.640065  0.000000
  0.000000  0.000000  0.000000


  -0.808573  1.137175  0.000000
  1.137175  1.028413  0.000000
  0.000000  0.000000  0.000000


  -0.918038  1.224218  0.000000
  1.224218  0.645071  0.000000
  0.000000  0.000000  0.000000


  -0.309257  0.320586  0.000000
  0.320586  2.725541  0.000000
  0.000000  0.000000  0.000000


  -0.231212  0.109788  0.000000
  0.109788  3.107062  0.000000
  0.000000  0.000000  0.000000


  -0.624802  0.997597  0.000000
  0.997597  1.412390  0.000000
  0.000000  0.000000  0.000000


  -0.558696  0.619871  0.000000
  0.619871  2.345574  0.000000
  0.000000  0.000000  0.000000


  -0.956949  1.078231  0.000000
  1.078231  1.140276  0.000000
  0.000000  0.000000  0.000000


  -0.899447  0.673353  0.000000
  0.673353  2.153921  0.000000
  0.000000  0.000000  0.000000


  -0.663792  0.645159  0.000000
  0.645159  2.123544  0.000000
  0.000000  0.000000  0.000000


  -0.748750  0.796022  0.000000
  0.796022  1.707360  0.000000
  0.000000  0.000000  0.000000


  -0.931767  0.615742  0.000000
  0.615742  2.231623  0.000000
  0.000000  0.000000  0.000000


  -0.983396  0.815617  0.000000
  0.815617  1.731231  0.000000
  0.000000  0.000000  0.000000


  -0.777132  0.762224  0.000000
  0.762224  1.773835  0.000000
  0.000000  0.000000  0.000000


  -0.944206  0.557717  0.000000
  0.557717  2.319568  0.000000
  0.000000  0.000000  0.000000


  -0.683946  0.517271  0.000000
  0.517271  2.284710  0.000000
  0.000000  0.000000  0.000000


  -0.787331  0.696450  0.000000
  0.696450  1.838551  0.000000
  0.000000  0.000000  0.000000


  -1.010582  0.758715  0.000000
  0.758715  1.789573  0.000000
  0.000000  0.000000  0.000000


  -0.862844  0.977834  0.000000
  0.977834  1.255568  0.000000
  0.000000  0.000000  0.000000


  -1.067528  0.964434  0.000000
  0.964434  1.262493  0.000000
  0.000000  0.000000  0.000000


  -0.940981  1.135840  0.000000
  1.135840  0.766284  0.000000
  0.000000  0.000000  0.000000


  -0.920305  1.181330  0.000000
  1.181330  0.744976  0.000000
  0.000000  0.000000  0.000000


  -0.831068  1.009694  0.000000
  1.009694  1.209751  0.000000
  0.000000  0.000000  0.000000


  -1.026069  0.993438  0.000000
  0.993438  1.212763  0.000000
  0.000000  0.000000  0.000000


  -0.885498  1.211157  0.000000
  1.211157  0.724953  0.000000
  0.000000  0.000000  0.000000


  -1.056805  1.160215  0.000000
  1.160215  0.710059  0.000000
  0.000000  0.000000  0.000000


  -0.988135  1.019566  0.000000
  1.019566  1.167463  0.000000
  0.000000  0.000000  0.000000


  -0.846130  1.216563  0.000000
  1.216563  0.699089  0.000000
  0.000000  0.000000  0.000000


  -1.014308  1.193207  0.000000
  1.193207  0.697193  0.000000
  0.000000  0.000000  0.000000


  -0.917587  1.350989  0.000000
  1.350989  0.221411  0.000000
  0.000000  0.000000  0.000000


  -0.872932  1.372426  0.000000
  1.372426  0.225185  0.000000
  0.000000  0.000000  0.000000


  -1.067267  1.302071  0.000000
  1.302071  0.206453  0.000000
  0.000000  0.000000  0.000000


  -0.961418  1.470444  0.000000
  1.470444  -0.290812  0.000000
  0.000000  0.000000  0.000000


  -0.930492  1.496538  0.000000
  1.496538  -0.260700  0.000000
  0.000000  0.000000  0.000000


  -0.970979  0.497002  0.000000
  0.497002  2.418585  0.000000
  0.000000  0.000000  0.000000


  -0.946960  1.337636  0.000000
  1.337636  0.228572  0.000000
  0.000000  0.000000  0.000000


  -0.972301  1.208385  0.000000
  1.208385  0.665709  0.000000
  0.000000  0.000000  0.000000


  -0.828251  1.387342  0.000000
  1.387342  0.225583  0.000000
  0.000000  0.000000  0.000000


  -1.060371  1.402736  0.000000
  1.402736  -0.301071  0.000000
  0.000000  0.000000  0.000000


  -1.052712  0.721046  0.000000
  0.721046  1.864909  0.000000
  0.000000  0.000000  0.000000


  -1.020856  1.306526  0.000000
  1.306526  0.201804  0.000000
  0.000000  0.000000  0.000000


  -0.882174  1.497422  0.000000
  1.497422  -0.232839  0.000000
  0.000000  0.000000  0.000000


  -1.009311  1.410031  0.000000
  1.410031  -0.268189  0.000000
  0.000000  0.000000  0.000000


  -0.973634  1.322560  0.000000
  1.322560  0.203520  0.000000
  0.000000  0.000000  0.000000


  -0.833375  1.497028  0.000000
  1.497028  -0.212485  0.000000
  0.000000  0.000000  0.000000


  -0.960123  1.419868  0.000000
  1.419868  -0.240547  0.000000
  0.000000  0.000000  0.000000


  -0.916723  1.332919  0.000000
  1.332919  0.210120  0.000000
  0.000000  0.000000  0.000000


  -0.792812  1.402937  0.000000
  1.402937  0.238427  0.000000
  0.000000  0.000000  0.000000


  -1.130817  1.292624  0.000000
  1.292624  0.217568  0.000000
  0.000000  0.000000  0.000000


  -1.004834  1.469843  0.000000
  1.469843  -0.301564  0.000000
  0.000000  0.000000  0.000000


  -1.178881  1.281366  0.000000
  1.281366  0.232065  0.000000
  0.000000  0.000000  0.000000


  -1.170541  1.398765  0.000000
  1.398765  -0.326894  0.000000
  0.000000  0.000000  0.000000


  -0.552165  0.860027  0.000000
  0.860027  1.749621  0.000000
  0.000000  0.000000  0.000000


  -0.722896  0.891800  0.000000
  0.891800  1.772945  0.000000
  0.000000  0.000000  0.000000


  -0.605065  1.044665  0.000000
  1.044665  1.364042  0.000000
  0.000000  0.000000  0.000000


  -0.802304  1.011966  0.000000
  1.011966  1.425611  0.000000
  0.000000  0.000000  0.000000


  -0.668882  1.176637  0.000000
  1.176637  1.039561  0.000000
  0.000000  0.000000  0.000000


  -0.759627  1.035774  0.000000
  1.035774  1.369464  0.000000
  0.000000  0.000000  0.000000


  -0.628726  1.184299  0.000000
  1.184299  0.999793  0.000000
  0.000000  0.000000  0.000000


  -0.778646  1.189662  0.000000
  1.189662  1.006711  0.000000
  0.000000  0.000000  0.000000


  -0.708603  1.067530  0.000000
  1.067530  1.318712  0.000000
  0.000000  0.000000  0.000000


  -0.701117  1.294874  0.000000
  1.294874  0.642686  0.000000
  0.000000  0.000000  0.000000


  -0.818246  1.271558  0.000000
  1.271558  0.638145  0.000000
  0.000000  0.000000  0.000000


  -0.754664  1.400925  0.000000
  1.400925  0.249406  0.000000
  0.000000  0.000000  0.000000


  -0.712414  1.422611  0.000000
  1.422611  0.272735  0.000000
  0.000000  0.000000  0.000000


  -0.860760  1.347637  0.000000
  1.347637  0.229628  0.000000
  0.000000  0.000000  0.000000


  -0.796703  1.495382  0.000000
  1.495382  -0.178919  0.000000
  0.000000  0.000000  0.000000


  -0.754545  1.509991  0.000000
  1.509991  -0.128868  0.000000
  0.000000  0.000000  0.000000


  -0.897969  1.413819  0.000000
  1.413819  -0.213390  0.000000
  0.000000  0.000000  0.000000


  -0.823490  1.576438  0.000000
  1.576438  -0.651138  0.000000
  0.000000  0.000000  0.000000


  -0.785484  1.581128  0.000000
  1.581128  -0.569869  0.000000
  0.000000  0.000000  0.000000


  -0.930861  1.478707  0.000000
  1.478707  -0.691278  0.000000
  0.000000  0.000000  0.000000


  -0.649511  1.307752  0.000000
  1.307752  0.618268  0.000000
  0.000000  0.000000  0.000000


  -0.574029  1.076456  0.000000
  1.076456  1.313719  0.000000
  0.000000  0.000000  0.000000


  -0.781166  1.281889  0.000000
  1.281889  0.613195  0.000000
  0.000000  0.000000  0.000000


  -0.659286  1.427078  0.000000
  1.427078  0.262938  0.000000
  0.000000  0.000000  0.000000


  -0.774686  1.385291  0.000000
  1.385291  0.251077  0.000000
  0.000000  0.000000  0.000000


  -0.723908  1.295870  0.000000
  1.295870  0.590315  0.000000
  0.000000  0.000000  0.000000


  -0.813606  1.346527  0.000000
  1.346527  0.239973  0.000000
  0.000000  0.000000  0.000000


  -0.711064  1.499106  0.000000
  1.499106  -0.102894  0.000000
  0.000000  0.000000  0.000000


  -0.798815  1.432603  0.000000
  1.432603  -0.126580  0.000000
  0.000000  0.000000  0.000000


  -0.744741  1.561544  0.000000
  1.561544  -0.521526  0.000000
  0.000000  0.000000  0.000000


  -0.693849  1.566885  0.000000
  1.566885  -0.460281  0.000000
  0.000000  0.000000  0.000000


  -0.815306  1.466194  0.000000
  1.466194  -0.562232  0.000000
  0.000000  0.000000  0.000000


  -0.744571  1.600541  0.000000
  1.600541  -0.975540  0.000000
  0.000000  0.000000  0.000000


  -0.719838  1.617900  0.000000
  1.617900  -0.866801  0.000000
  0.000000  0.000000  0.000000


  -0.846325  1.410247  0.000000
  1.410247  -0.176357  0.000000
  0.000000  0.000000  0.000000


  -0.884157  1.477151  0.000000
  1.477151  -0.618435  0.000000
  0.000000  0.000000  0.000000


  -0.805358  1.635234  0.000000
  1.635234  -1.056418  0.000000
  0.000000  0.000000  0.000000


  -0.868812  1.490100  0.000000
  1.490100  -1.140902  0.000000
  0.000000  0.000000  0.000000


  -0.815354  1.690661  0.000000
  1.690661  -1.577670  0.000000
  0.000000  0.000000  0.000000


  -0.783692  1.676401  0.000000
  1.676401  -1.405402  0.000000
  0.000000  0.000000  0.000000


  -0.831616  1.475961  0.000000
  1.475961  -1.020868  0.000000
  0.000000  0.000000  0.000000


  -0.720536  1.647568  0.000000
  1.647568  -1.315174  0.000000
  0.000000  0.000000  0.000000


  -0.774581  1.482027  0.000000
  1.482027  -1.382887  0.000000
  0.000000  0.000000  0.000000


  -0.771413  1.462698  0.000000
  1.462698  -0.947668  0.000000
  0.000000  0.000000  0.000000


  -0.672856  1.623008  0.000000
  1.623008  -1.191808  0.000000
  0.000000  0.000000  0.000000


  -0.722088  1.454340  0.000000
  1.454340  -1.272360  0.000000
  0.000000  0.000000  0.000000


  -0.716215  1.457148  0.000000
  1.457148  -0.847878  0.000000
  0.000000  0.000000  0.000000


  -0.771239  1.453796  0.000000
  1.453796  -0.509759  0.000000
  0.000000  0.000000  0.000000


  -0.670079  1.608250  0.000000
  1.608250  -0.756456  0.000000
  0.000000  0.000000  0.000000


  -0.706842  1.440230  0.000000
  1.440230  -0.436166  0.000000
  0.000000  0.000000  0.000000


  -0.628638  1.591449  0.000000
  1.591449  -0.625386  0.000000
  0.000000  0.000000  0.000000


  -0.674758  1.581215  0.000000
  1.581215  -0.334344  0.000000
  0.000000  0.000000  0.000000


  -0.697849  1.633121  0.000000
  1.633121  -1.827862  0.000000
  0.000000  0.000000  0.000000


  -0.661401  1.617273  0.000000
  1.617273  -1.682820  0.000000
  0.000000  0.000000  0.000000


  -0.663010  1.497504  0.000000
  1.497504  -0.071215  0.000000
  0.000000  0.000000  0.000000


  -0.735184  1.404700  0.000000
  1.404700  0.274392  0.000000
  0.000000  0.000000  0.000000


  -0.731648  1.417068  0.000000
  1.417068  -0.115943  0.000000
  0.000000  0.000000  0.000000


  -0.600489  1.471791  0.000000
  1.471791  -0.054103  0.000000
  0.000000  0.000000  0.000000


  -0.623994  1.433153  0.000000
  1.433153  0.281514  0.000000
  0.000000  0.000000  0.000000


  -0.710803  1.430864  0.000000
  1.430864  -0.059371  0.000000
  0.000000  0.000000  0.000000


  -0.600448  1.563290  0.000000
  1.563290  -0.328061  0.000000
  0.000000  0.000000  0.000000


  -0.671836  1.458970  0.000000
  1.458970  -0.348016  0.000000
  0.000000  0.000000  0.000000


  -0.584487  1.595603  0.000000
  1.595603  -0.567590  0.000000
  0.000000  0.000000  0.000000


  -0.640421  1.428653  0.000000
  1.428653  -0.066833  0.000000
  0.000000  0.000000  0.000000


  -0.636166  1.467714  0.000000
  1.467714  -0.609961  0.000000
  0.000000  0.000000  0.000000


  -0.612693  1.455359  0.000000
  1.455359  -0.319322  0.000000
  0.000000  0.000000  0.000000


  -0.569191  1.576319  0.000000
  1.576319  -0.229000  0.000000
  0.000000  0.000000  0.000000


  -0.570655  1.432384  0.000000
  1.432384  0.013451  0.000000
  0.000000  0.000000  0.000000


  -0.528205  1.568172  0.000000
  1.568172  -0.123750  0.000000
  0.000000  0.000000  0.000000


  -0.572241  1.538471  0.000000
  1.538471  0.172741  0.000000
  0.000000  0.000000  0.000000


  -0.607074  1.536369  0.000000
  1.536369  0.009977  0.000000
  0.000000  0.000000  0.000000


  -0.571062  1.565041  0.000000
  1.565041  -0.957183  0.000000
  0.000000  0.000000  0.000000


  -0.541052  1.564338  0.000000
  1.564338  -0.847099  0.000000
  0.000000  0.000000  0.000000


  -0.558246  1.592090  0.000000
  1.592090  -0.429624  0.000000
  0.000000  0.000000  0.000000


  -0.655925  1.399505  0.000000
  1.399505  0.253421  0.000000
  0.000000  0.000000  0.000000


  -0.606779  1.448176  0.000000
  1.448176  0.274321  0.000000
  0.000000  0.000000  0.000000


  -0.653620  1.368887  0.000000
  1.368887  0.562593  0.000000
  0.000000  0.000000  0.000000


  -0.660594  1.318661  0.000000
  1.318661  0.581167  0.000000
  0.000000  0.000000  0.000000


  -0.581053  1.341223  0.000000
  1.341223  0.587159  0.000000
  0.000000  0.000000  0.000000


  -0.529960  1.447292  0.000000
  1.447292  0.292855  0.000000
  0.000000  0.000000  0.000000


  -0.586298  1.360674  0.000000
  1.360674  0.552278  0.000000
  0.000000  0.000000  0.000000


  -0.510976  1.401936  0.000000
  1.401936  0.276972  0.000000
  0.000000  0.000000  0.000000


  -0.517446  1.376700  0.000000
  1.376700  0.556000  0.000000
  0.000000  0.000000  0.000000


  -0.644365  1.264595  0.000000
  1.264595  0.882720  0.000000
  0.000000  0.000000  0.000000


  -0.669899  1.209549  0.000000
  1.209549  0.914250  0.000000
  0.000000  0.000000  0.000000


  -0.614147  1.388379  0.000000
  1.388379  0.259682  0.000000
  0.000000  0.000000  0.000000


  -0.521236  1.344264  0.000000
  1.344264  0.551905  0.000000
  0.000000  0.000000  0.000000


  -0.564363  1.260352  0.000000
  1.260352  0.839532  0.000000
  0.000000  0.000000  0.000000


  -0.505880  1.271067  0.000000
  1.271067  0.841035  0.000000
  0.000000  0.000000  0.000000


  -0.543053  1.192844  0.000000
  1.192844  1.084392  0.000000
  0.000000  0.000000  0.000000


  -0.558319  1.130745  0.000000
  1.130745  1.113560  0.000000
  0.000000  0.000000  0.000000


  -0.537598  1.285145  0.000000
  1.285145  0.814202  0.000000
  0.000000  0.000000  0.000000


  -0.432691  1.274932  0.000000
  1.274932  0.796610  0.000000
  0.000000  0.000000  0.000000


  -0.491364  1.195419  0.000000
  1.195419  1.027502  0.000000
  0.000000  0.000000  0.000000


  -0.393007  1.276948  0.000000
  1.276948  0.749725  0.000000
  0.000000  0.000000  0.000000


  -0.400135  1.176364  0.000000
  1.176364  1.006142  0.000000
  0.000000  0.000000  0.000000


  -0.417286  1.142665  0.000000
  1.142665  1.060566  0.000000
  0.000000  0.000000  0.000000


  -0.486705  1.165993  0.000000
  1.165993  1.129578  0.000000
  0.000000  0.000000  0.000000


  -0.526910  1.267818  0.000000
  1.267818  0.880708  0.000000
  0.000000  0.000000  0.000000


  -0.625819  1.117606  0.000000
  1.117606  1.179146  0.000000
  0.000000  0.000000  0.000000


  -0.504421  1.107428  0.000000
  1.107428  1.171903  0.000000
  0.000000  0.000000  0.000000


  -0.573851  1.249926  0.000000
  1.249926  0.928883  0.000000
  0.000000  0.000000  0.000000


  -0.549316  1.019885  0.000000
  1.019885  1.460396  0.000000
  0.000000  0.000000  0.000000


  -0.458885  0.991208  0.000000
  0.991208  1.438840  0.000000
  0.000000  0.000000  0.000000


  -0.618391  1.002310  0.000000
  1.002310  1.530620  0.000000
  0.000000  0.000000  0.000000


  -0.664201  1.117072  0.000000
  1.117072  1.254751  0.000000
  0.000000  0.000000  0.000000


  -0.557762  1.092397  0.000000
  1.092397  1.248111  0.000000
  0.000000  0.000000  0.000000


  -0.636312  0.953403  0.000000
  0.953403  1.622214  0.000000
  0.000000  0.000000  0.000000


  -0.515829  0.905347  0.000000
  0.905347  1.721894  0.000000
  0.000000  0.000000  0.000000


  -0.527469  0.838084  0.000000
  0.838084  1.783432  0.000000
  0.000000  0.000000  0.000000


  -0.602740  1.201362  0.000000
  1.201362  0.955242  0.000000
  0.000000  0.000000  0.000000


  -0.494459  0.914953  0.000000
  0.914953  1.607493  0.000000
  0.000000  0.000000  0.000000


  -0.721240  1.200576  0.000000
  1.200576  0.960452  0.000000
  0.000000  0.000000  0.000000


  -0.583206  0.880119  0.000000
  0.880119  1.871979  0.000000
  0.000000  0.000000  0.000000


  -0.502270  0.987380  0.000000
  0.987380  1.520683  0.000000
  0.000000  0.000000  0.000000


  -0.383724  0.712278  0.000000
  0.712278  1.860689  0.000000
  0.000000  0.000000  0.000000


  -0.614324  0.805004  0.000000
  0.805004  1.986363  0.000000
  0.000000  0.000000  0.000000


  -0.468220  0.888977  0.000000
  0.888977  1.810809  0.000000
  0.000000  0.000000  0.000000


  -0.550618  0.669544  0.000000
  0.669544  2.274276  0.000000
  0.000000  0.000000  0.000000


  -0.518954  0.897606  0.000000
  0.897606  1.673920  0.000000
  0.000000  0.000000  0.000000


  -0.624412  1.347563  0.000000
  1.347563  0.611293  0.000000
  0.000000  0.000000  0.000000


  -0.435193  0.752116  0.000000
  0.752116  1.951396  0.000000
  0.000000  0.000000  0.000000


  -0.682793  0.920562  0.000000
  0.920562  1.697619  0.000000
  0.000000  0.000000  0.000000


  -0.387766  1.005162  0.000000
  1.005162  1.363823  0.000000
  0.000000  0.000000  0.000000


  -0.442581  0.893110  0.000000
  0.893110  1.600427  0.000000
  0.000000  0.000000  0.000000


  -0.429716  0.882265  0.000000
  0.882265  1.709330  0.000000
  0.000000  0.000000  0.000000


  -0.447002  1.222359  0.000000
  1.222359  0.950630  0.000000
  0.000000  0.000000  0.000000


  -0.459827  1.059882  0.000000
  1.059882  1.312368  0.000000
  0.000000  0.000000  0.000000


  -0.375627  1.017286  0.000000
  1.017286  1.285437  0.000000
  0.000000  0.000000  0.000000


  -0.419235  0.946806  0.000000
  0.946806  1.513107  0.000000
  0.000000  0.000000  0.000000


  -0.498006  1.322943  0.000000
  1.322943  0.766429  0.000000
  0.000000  0.000000  0.000000


  -0.420598  1.065176  0.000000
  1.065176  1.233512  0.000000
  0.000000  0.000000  0.000000


  -0.366784  0.893229  0.000000
  0.893229  1.590567  0.000000
  0.000000  0.000000  0.000000


  -0.564106  1.454377  0.000000
  1.454377  -0.192624  0.000000
  0.000000  0.000000  0.000000


  -0.504012  1.591760  0.000000
  1.591760  -0.340177  0.000000
  0.000000  0.000000  0.000000


  -0.532581  1.463053  0.000000
  1.463053  -0.420378  0.000000
  0.000000  0.000000  0.000000


  -0.512196  1.476437  0.000000
  1.476437  -0.138787  0.000000
  0.000000  0.000000  0.000000


  -0.552297  1.468883  0.000000
  1.468883  0.163064  0.000000
  0.000000  0.000000  0.000000


  -0.930323  1.508229  0.000000
  1.508229  -1.239762  0.000000
  0.000000  0.000000  0.000000


  -0.641424  1.595667  0.000000
  1.595667  -1.031072  0.000000
  0.000000  0.000000  0.000000


  -0.635554  1.423938  0.000000
  1.423938  -1.172970  0.000000
  0.000000  0.000000  0.000000


  -0.690317  1.468280  0.000000
  1.468280  -0.694228  0.000000
  0.000000  0.000000  0.000000


  -0.620560  1.603817  0.000000
  1.603817  -1.495517  0.000000
  0.000000  0.000000  0.000000


  -0.612375  1.412865  0.000000
  1.412865  -1.003392  0.000000
  0.000000  0.000000  0.000000


  -0.827880  1.497043  0.000000
  1.497043  -1.519600  0.000000
  0.000000  0.000000  0.000000


  -0.751682  1.680085  0.000000
  1.680085  -1.969071  0.000000
  0.000000  0.000000  0.000000


  -0.886139  1.527073  0.000000
  1.527073  -1.667491  0.000000
  0.000000  0.000000  0.000000


  -0.794450  1.489020  0.000000
  1.489020  -2.085632  0.000000
  0.000000  0.000000  0.000000


  -0.806177  1.725398  0.000000
  1.725398  -2.137274  0.000000
  0.000000  0.000000  0.000000


  -0.937953  1.560350  0.000000
  1.560350  -1.785740  0.000000
  0.000000  0.000000  0.000000


  -0.844869  1.521741  0.000000
  1.521741  -2.261980  0.000000
  0.000000  0.000000  0.000000


  -0.751028  1.713303  0.000000
  1.713303  -2.544105  0.000000
  0.000000  0.000000  0.000000


  -0.751562  1.467980  0.000000
  1.467980  -2.698992  0.000000
  0.000000  0.000000  0.000000


  -0.708699  1.670515  0.000000
  1.670515  -2.320975  0.000000
  0.000000  0.000000  0.000000


  -0.860817  1.720009  0.000000
  1.720009  -1.717793  0.000000
  0.000000  0.000000  0.000000


  -0.995905  1.533791  0.000000
  1.533791  -1.311027  0.000000
  0.000000  0.000000  0.000000


  -0.900967  1.662718  0.000000
  1.662718  -1.255758  0.000000
  0.000000  0.000000  0.000000


  -0.920114  1.753657  0.000000
  1.753657  -1.812043  0.000000
  0.000000  0.000000  0.000000


  -0.793464  1.762808  0.000000
  1.762808  -2.756051  0.000000
  0.000000  0.000000  0.000000


  -0.663466  1.652743  0.000000
  1.652743  -2.933579  0.000000
  0.000000  0.000000  0.000000


  -0.854543  1.765506  0.000000
  1.765506  -2.306339  0.000000
  0.000000  0.000000  0.000000


  -0.703984  1.710686  0.000000
  1.710686  -3.194144  0.000000
  0.000000  0.000000  0.000000


  -1.052077  1.553671  0.000000
  1.553671  -1.401591  0.000000
  0.000000  0.000000  0.000000


  -0.994866  1.586929  0.000000
  1.586929  -1.901647  0.000000
  0.000000  0.000000  0.000000


  -0.912968  1.813762  0.000000
  1.813762  -2.443430  0.000000
  0.000000  0.000000  0.000000


  -1.059810  1.625856  0.000000
  1.625856  -2.008444  0.000000
  0.000000  0.000000  0.000000


  -0.965763  1.615345  0.000000
  1.615345  -2.550709  0.000000
  0.000000  0.000000  0.000000


  -0.455643  1.376690  0.000000
  1.376690  0.491418  0.000000
  0.000000  0.000000  0.000000


  -0.561040  1.409160  0.000000
  1.409160  0.502878  0.000000
  0.000000  0.000000  0.000000


  -0.470506  1.462413  0.000000
  1.462413  0.162763  0.000000
  0.000000  0.000000  0.000000


  -0.530269  1.033575  0.000000
  1.033575  1.389820  0.000000
  0.000000  0.000000  0.000000


  -0.579070  1.446438  0.000000
  1.446438  -0.528591  0.000000
  0.000000  0.000000  0.000000


  -1.127932  1.415124  0.000000
  1.415124  -0.307260  0.000000
  0.000000  0.000000  0.000000


  -0.599177  1.436707  0.000000
  1.436707  -0.893024  0.000000
  0.000000  0.000000  0.000000


  -0.919867  0.898304  0.000000
  0.898304  1.601135  0.000000
  0.000000  0.000000  0.000000


  -0.795461  1.056018  0.000000
  1.056018  1.172483  0.000000
  0.000000  0.000000  0.000000


  -0.765707  1.080671  0.000000
  1.080671  1.132731  0.000000
  0.000000  0.000000  0.000000


  -0.496194  0.388369  0.000000
  0.388369  2.763282  0.000000
  0.000000  0.000000  0.000000


  -0.366318  0.534456  0.000000
  0.534456  2.297866  0.000000
  0.000000  0.000000  0.000000


  -0.429041  0.385559  0.000000
  0.385559  2.659351  0.000000
  0.000000  0.000000  0.000000


  -0.139864  -1.145517  0.000000
  -1.145517  5.243406  0.000000
  0.000000  0.000000  0.000000


  -1.158453  1.108551  0.000000
  1.108551  0.766160  0.000000
  0.000000  0.000000  0.000000


  -1.027051  1.305364  0.000000
  1.305364  0.255320  0.000000
  0.000000  0.000000  0.000000


  -0.977144  1.311996  0.000000
  1.311996  0.235915  0.000000
  0.000000  0.000000  0.000000


  -1.193317  1.081162  0.000000
  1.081162  0.795431  0.000000
  0.000000  0.000000  0.000000


  -1.203884  1.233145  0.000000
  1.233145  0.227844  0.000000
  0.000000  0.000000  0.000000


  -1.104989  1.132074  0.000000
  1.132074  0.731846  0.000000
  0.000000  0.000000  0.000000


  -0.975027  1.111451  0.000000
  1.111451  0.796795  0.000000
  0.000000  0.000000  0.000000


  -1.143557  0.876598  0.000000
  0.876598  1.370134  0.000000
  0.000000  0.000000  0.000000


  -0.901204  0.879232  0.000000
  0.879232  1.355400  0.000000
  0.000000  0.000000  0.000000


  -1.005418  1.079226  0.000000
  1.079226  0.835184  0.000000
  0.000000  0.000000  0.000000


  -1.060310  1.282654  0.000000
  1.282654  0.253905  0.000000
  0.000000  0.000000  0.000000


  -1.105220  1.473656  0.000000
  1.473656  -0.317402  0.000000
  0.000000  0.000000  0.000000


  -1.068007  1.467999  0.000000
  1.467999  -0.305660  0.000000
  0.000000  0.000000  0.000000


  -1.209717  1.391535  0.000000
  1.391535  -0.336150  0.000000
  0.000000  0.000000  0.000000


  -1.100450  1.597231  0.000000
  1.597231  -0.903271  0.000000
  0.000000  0.000000  0.000000


  -1.075155  1.610127  0.000000
  1.610127  -0.868176  0.000000
  0.000000  0.000000  0.000000


  -1.204156  1.512924  0.000000
  1.512924  -0.909737  0.000000
  0.000000  0.000000  0.000000


  -1.096978  1.728577  0.000000
  1.728577  -1.489883  0.000000
  0.000000  0.000000  0.000000


  -1.060227  1.730455  0.000000
  1.730455  -1.420247  0.000000
  0.000000  0.000000  0.000000


  -1.284122  1.391977  0.000000
  1.391977  -0.350171  0.000000
  0.000000  0.000000  0.000000


  -1.152305  1.615015  0.000000
  1.615015  -0.934317  0.000000
  0.000000  0.000000  0.000000


  -1.338527  1.396063  0.000000
  1.396063  -0.349834  0.000000
  0.000000  0.000000  0.000000


  -1.310649  1.514745  0.000000
  1.514745  -0.979553  0.000000
  0.000000  0.000000  0.000000


  -1.273723  1.527374  0.000000
  1.527374  -0.926747  0.000000
  0.000000  0.000000  0.000000


  -1.167357  1.754085  0.000000
  1.754085  -1.532572  0.000000
  0.000000  0.000000  0.000000


  -1.285204  1.640044  0.000000
  1.640044  -1.586202  0.000000
  0.000000  0.000000  0.000000


  -1.182571  1.888224  0.000000
  1.888224  -2.216939  0.000000
  0.000000  0.000000  0.000000


  -1.143563  1.881793  0.000000
  1.881793  -2.123604  0.000000
  0.000000  0.000000  0.000000


  -1.138972  1.453513  0.000000
  1.453513  -0.334043  0.000000
  0.000000  0.000000  0.000000


  -1.308072  1.199964  0.000000
  1.199964  0.262242  0.000000
  0.000000  0.000000  0.000000


  -1.094913  1.254272  0.000000
  1.254272  0.276062  0.000000
  0.000000  0.000000  0.000000


  -1.234219  1.044589  0.000000
  1.044589  0.833536  0.000000
  0.000000  0.000000  0.000000


  -1.273688  1.010305  0.000000
  1.010305  0.878305  0.000000
  0.000000  0.000000  0.000000


  -1.184589  1.446054  0.000000
  1.446054  -0.316721  0.000000
  0.000000  0.000000  0.000000


  -1.365622  1.671631  0.000000
  1.671631  -1.616094  0.000000
  0.000000  0.000000  0.000000


  -1.230645  1.706784  0.000000
  1.706784  -2.219724  0.000000
  0.000000  0.000000  0.000000


  -1.027018  1.028495  0.000000
  1.028495  0.871522  0.000000
  0.000000  0.000000  0.000000


  -1.164124  1.588952  0.000000
  1.588952  -1.490327  0.000000
  0.000000  0.000000  0.000000


  -1.196636  1.604737  0.000000
  1.604737  -0.946246  0.000000
  0.000000  0.000000  0.000000


  -1.128964  1.229717  0.000000
  1.229717  0.296203  0.000000
  0.000000  0.000000  0.000000


  -1.230773  1.606481  0.000000
  1.606481  -1.540920  0.000000
  0.000000  0.000000  0.000000


  -1.075416  1.835586  0.000000
  1.835586  -2.064765  0.000000
  0.000000  0.000000  0.000000


  -1.183844  1.703039  0.000000
  1.703039  -2.117387  0.000000
  0.000000  0.000000  0.000000


  -1.093558  1.931771  0.000000
  1.931771  -2.748409  0.000000
  0.000000  0.000000  0.000000


  -1.159193  1.776619  0.000000
  1.776619  -2.823985  0.000000
  0.000000  0.000000  0.000000


  -1.067491  2.032185  0.000000
  2.032185  -3.494086  0.000000
  0.000000  0.000000  0.000000


  -1.025679  1.993830  0.000000
  1.993830  -3.328987  0.000000
  0.000000  0.000000  0.000000


  -1.021299  1.887633  0.000000
  1.887633  -2.653994  0.000000
  0.000000  0.000000  0.000000


  -1.256225  1.842546  0.000000
  1.842546  -2.889866  0.000000
  0.000000  0.000000  0.000000


  -1.150395  1.859878  0.000000
  1.859878  -3.568536  0.000000
  0.000000  0.000000  0.000000


  -1.070952  1.771006  0.000000
  1.771006  -3.453007  0.000000
  0.000000  0.000000  0.000000


  -1.107389  1.711064  0.000000
  1.711064  -2.730070  0.000000
  0.000000  0.000000  0.000000


  -0.954626  1.926227  0.000000
  1.926227  -3.207346  0.000000
  0.000000  0.000000  0.000000


  -1.009344  1.726452  0.000000
  1.726452  -3.297291  0.000000
  0.000000  0.000000  0.000000


  -1.028038  1.662868  0.000000
  1.662868  -2.639560  0.000000
  0.000000  0.000000  0.000000


  -0.902192  1.867075  0.000000
  1.867075  -3.107999  0.000000
  0.000000  0.000000  0.000000


  -0.976889  1.852246  0.000000
  1.852246  -2.566945  0.000000
  0.000000  0.000000  0.000000


  -0.944521  1.685543  0.000000
  1.685543  -3.169738  0.000000
  0.000000  0.000000  0.000000


  -1.109997  1.653712  0.000000
  1.653712  -2.055747  0.000000
  0.000000  0.000000  0.000000


  -0.863208  1.893785  0.000000
  1.893785  -3.832084  0.000000
  0.000000  0.000000  0.000000


  -0.793512  1.827382  0.000000
  1.827382  -3.677783  0.000000
  0.000000  0.000000  0.000000


  -1.026395  1.787719  0.000000
  1.787719  -2.008177  0.000000
  0.000000  0.000000  0.000000


  -0.881593  1.697463  0.000000
  1.697463  -3.911314  0.000000
  0.000000  0.000000  0.000000


  -0.787224  1.922923  0.000000
  1.922923  -4.606133  0.000000
  0.000000  0.000000  0.000000


  -0.745004  1.862949  0.000000
  1.862949  -4.393896  0.000000
  0.000000  0.000000  0.000000


  -0.968848  1.800081  0.000000
  1.800081  -4.045774  0.000000
  0.000000  0.000000  0.000000


  -0.933802  1.986965  0.000000
  1.986965  -3.951138  0.000000
  0.000000  0.000000  0.000000


  -0.849687  2.018344  0.000000
  2.018344  -4.774698  0.000000
  0.000000  0.000000  0.000000


  -1.082502  1.891879  0.000000
  1.891879  -4.188452  0.000000
  0.000000  0.000000  0.000000


  -0.960194  2.176018  0.000000
  2.176018  -4.901252  0.000000
  0.000000  0.000000  0.000000


  -0.854515  1.826051  0.000000
  1.826051  -4.854315  0.000000
  0.000000  0.000000  0.000000


  -1.133593  1.990384  0.000000
  1.990384  -4.333352  0.000000
  0.000000  0.000000  0.000000


  -0.914852  1.913067  0.000000
  1.913067  -5.145951  0.000000
  0.000000  0.000000  0.000000


  -1.042526  2.132611  0.000000
  2.132611  -4.284789  0.000000
  0.000000  0.000000  0.000000


  -1.240532  1.937867  0.000000
  1.937867  -3.631675  0.000000
  0.000000  0.000000  0.000000


  -1.129092  2.082921  0.000000
  2.082921  -3.580455  0.000000
  0.000000  0.000000  0.000000


  -1.325133  1.888690  0.000000
  1.888690  -2.939442  0.000000
  0.000000  0.000000  0.000000


  -1.118604  2.215361  0.000000
  2.215361  -4.370501  0.000000
  0.000000  0.000000  0.000000


  -1.024884  2.234056  0.000000
  2.234056  -5.187165  0.000000
  0.000000  0.000000  0.000000


  -0.788288  1.712512  0.000000
  1.712512  -4.678414  0.000000
  0.000000  0.000000  0.000000


  -0.826181  1.597741  0.000000
  1.597741  -3.767127  0.000000
  0.000000  0.000000  0.000000


  -0.675520  1.769468  0.000000
  1.769468  -4.216317  0.000000
  0.000000  0.000000  0.000000


  -0.650102  1.493027  0.000000
  1.493027  -4.328306  0.000000
  0.000000  0.000000  0.000000


  -0.763926  1.511060  0.000000
  1.511060  -3.587331  0.000000
  0.000000  0.000000  0.000000


  -1.189553  2.136175  0.000000
  2.136175  -3.642176  0.000000
  0.000000  0.000000  0.000000


  -0.716049  1.600900  0.000000
  1.600900  -4.519170  0.000000
  0.000000  0.000000  0.000000


  -1.192758  2.028591  0.000000
  2.028591  -2.888953  0.000000
  0.000000  0.000000  0.000000


  -1.312355  1.748636  0.000000
  1.748636  -2.278998  0.000000
  0.000000  0.000000  0.000000


  -1.391717  1.804105  0.000000
  1.804105  -2.280656  0.000000
  0.000000  0.000000  0.000000


  -1.133087  1.984259  0.000000
  1.984259  -2.836189  0.000000
  0.000000  0.000000  0.000000


  -1.232658  1.902578  0.000000
  1.902578  -2.251607  0.000000
  0.000000  0.000000  0.000000


  -1.271035  2.074870  0.000000
  2.074870  -2.924917  0.000000
  0.000000  0.000000  0.000000


  -1.427367  1.681248  0.000000
  1.681248  -1.607789  0.000000
  0.000000  0.000000  0.000000


  -1.255102  1.778322  0.000000
  1.778322  -1.575954  0.000000
  0.000000  0.000000  0.000000


  -1.298294  1.940354  0.000000
  1.940354  -2.259783  0.000000
  0.000000  0.000000  0.000000


  -1.445644  1.530780  0.000000
  1.530780  -0.954981  0.000000
  0.000000  0.000000  0.000000


  -1.234244  1.593588  0.000000
  1.593588  -0.937869  0.000000
  0.000000  0.000000  0.000000


  -1.317614  1.795343  0.000000
  1.795343  -1.575631  0.000000
  0.000000  0.000000  0.000000


  -1.387854  1.372679  0.000000
  1.372679  -0.342442  0.000000
  0.000000  0.000000  0.000000


  -1.446967  1.373812  0.000000
  1.373812  -0.298210  0.000000
  0.000000  0.000000  0.000000


  -1.209703  1.405396  0.000000
  1.405396  -0.294389  0.000000
  0.000000  0.000000  0.000000


  -1.281089  1.582019  0.000000
  1.582019  -0.910487  0.000000
  0.000000  0.000000  0.000000


  -1.400664  1.142974  0.000000
  1.142974  0.351239  0.000000
  0.000000  0.000000  0.000000


  -1.146548  1.162078  0.000000
  1.162078  0.347350  0.000000
  0.000000  0.000000  0.000000


  -1.258771  1.395831  0.000000
  1.395831  -0.241297  0.000000
  0.000000  0.000000  0.000000


  -1.385122  1.526613  0.000000
  1.526613  -0.973065  0.000000
  0.000000  0.000000  0.000000


  -1.202160  1.771945  0.000000
  1.771945  -1.577860  0.000000
  0.000000  0.000000  0.000000


  -1.449587  1.824802  0.000000
  1.824802  -2.311552  0.000000
  0.000000  0.000000  0.000000


  -1.336215  2.120003  0.000000
  2.120003  -3.008362  0.000000
  0.000000  0.000000  0.000000


  -1.385918  1.930841  0.000000
  1.930841  -2.999588  0.000000
  0.000000  0.000000  0.000000


  -1.266215  2.219612  0.000000
  2.219612  -3.724383  0.000000
  0.000000  0.000000  0.000000


  -1.475120  1.994749  0.000000
  1.994749  -3.067112  0.000000
  0.000000  0.000000  0.000000


  -1.350640  2.057798  0.000000
  2.057798  -3.808726  0.000000
  0.000000  0.000000  0.000000


  -1.354530  2.304652  0.000000
  2.304652  -3.817382  0.000000
  0.000000  0.000000  0.000000


  -1.568456  2.056312  0.000000
  2.056312  -3.103433  0.000000
  0.000000  0.000000  0.000000


  -1.448319  2.132631  0.000000
  2.132631  -3.908697  0.000000
  0.000000  0.000000  0.000000


  -1.496652  1.522047  0.000000
  1.522047  -0.927068  0.000000
  0.000000  0.000000  0.000000


  -1.487400  1.333457  0.000000
  1.333457  -0.257847  0.000000
  0.000000  0.000000  0.000000


  -1.330986  1.588472  0.000000
  1.588472  -0.910443  0.000000
  0.000000  0.000000  0.000000


  -1.539203  1.330276  0.000000
  1.330276  -0.234733  0.000000
  0.000000  0.000000  0.000000


  -1.538175  1.504253  0.000000
  1.504253  -0.942772  0.000000
  0.000000  0.000000  0.000000


  -1.307341  0.984675  0.000000
  0.984675  0.944054  0.000000
  0.000000  0.000000  0.000000


  -1.051422  0.972614  0.000000
  0.972614  0.923079  0.000000
  0.000000  0.000000  0.000000


  -1.205731  0.795604  0.000000
  0.795604  1.496342  0.000000
  0.000000  0.000000  0.000000


  -1.230592  0.726721  0.000000
  0.726721  1.565095  0.000000
  0.000000  0.000000  0.000000


  -0.938376  0.781005  0.000000
  0.781005  1.472463  0.000000
  0.000000  0.000000  0.000000


  -1.105368  0.618697  0.000000
  0.618697  2.011246  0.000000
  0.000000  0.000000  0.000000


  -1.116393  0.534684  0.000000
  0.534684  2.096178  0.000000
  0.000000  0.000000  0.000000


  -1.434971  1.104455  0.000000
  1.104455  0.397267  0.000000
  0.000000  0.000000  0.000000


  -1.488453  1.688438  0.000000
  1.688438  -1.624824  0.000000
  0.000000  0.000000  0.000000


  -1.363853  1.975885  0.000000
  1.975885  -2.307504  0.000000
  0.000000  0.000000  0.000000


  -1.558909  1.717170  0.000000
  1.717170  -1.631550  0.000000
  0.000000  0.000000  0.000000


  -1.377350  1.800424  0.000000
  1.800424  -1.599597  0.000000
  0.000000  0.000000  0.000000


  -1.416715  1.982623  0.000000
  1.982623  -2.340237  0.000000
  0.000000  0.000000  0.000000


  -1.523007  1.857790  0.000000
  1.857790  -2.363918  0.000000
  0.000000  0.000000  0.000000


  -1.387791  2.149393  0.000000
  2.149393  -3.070240  0.000000
  0.000000  0.000000  0.000000


  -1.613396  1.896699  0.000000
  1.896699  -2.371669  0.000000
  0.000000  0.000000  0.000000


  -1.476373  2.204001  0.000000
  2.204001  -3.089948  0.000000
  0.000000  0.000000  0.000000


  -1.683980  1.925419  0.000000
  1.925419  -2.371303  0.000000
  0.000000  0.000000  0.000000


  -1.612748  2.058859  0.000000
  2.058859  -3.168252  0.000000
  0.000000  0.000000  0.000000


  -1.634528  1.737265  0.000000
  1.737265  -1.619059  0.000000
  0.000000  0.000000  0.000000


  -1.349798  0.933938  0.000000
  0.933938  1.022430  0.000000
  0.000000  0.000000  0.000000


  -0.887679  1.598606  0.000000
  1.598606  -3.053160  0.000000
  0.000000  0.000000  0.000000


  -1.199262  2.287356  0.000000
  2.287356  -4.426652  0.000000
  0.000000  0.000000  0.000000


  -1.223154  2.122076  0.000000
  2.122076  -4.509208  0.000000
  0.000000  0.000000  0.000000


  -1.267558  2.510463  0.000000
  2.510463  -5.266781  0.000000
  0.000000  0.000000  0.000000


  -1.085090  2.290678  0.000000
  2.290678  -5.365512  0.000000
  0.000000  0.000000  0.000000


  -1.201722  2.305026  0.000000
  2.305026  -5.363255  0.000000
  0.000000  0.000000  0.000000


  -1.210656  2.054113  0.000000
  2.054113  -4.440779  0.000000
  0.000000  0.000000  0.000000


  -1.276612  2.407454  0.000000
  2.407454  -4.573218  0.000000
  0.000000  0.000000  0.000000


  -1.307680  2.158603  0.000000
  2.158603  -4.712372  0.000000
  0.000000  0.000000  0.000000


  -1.290560  2.604553  0.000000
  2.604553  -5.586314  0.000000
  0.000000  0.000000  0.000000


  -1.366619  2.251204  0.000000
  2.251204  -4.783350  0.000000
  0.000000  0.000000  0.000000


  -1.179963  2.266400  0.000000
  2.266400  -5.752454  0.000000
  0.000000  0.000000  0.000000


  -1.472561  1.993794  0.000000
  1.993794  -2.350200  0.000000
  0.000000  0.000000  0.000000


  -1.098459  2.148093  0.000000
  2.148093  -5.719255  0.000000
  0.000000  0.000000  0.000000


  -1.349692  2.485167  0.000000
  2.485167  -4.689950  0.000000
  0.000000  0.000000  0.000000


  -1.567648  2.229908  0.000000
  2.229908  -3.916009  0.000000
  0.000000  0.000000  0.000000


  -1.455203  2.354627  0.000000
  2.354627  -3.854548  0.000000
  0.000000  0.000000  0.000000


  -1.449270  2.552966  0.000000
  2.552966  -4.690572  0.000000
  0.000000  0.000000  0.000000


  -1.683388  2.310692  0.000000
  2.310692  -3.943312  0.000000
  0.000000  0.000000  0.000000


  -1.494170  2.366406  0.000000
  2.366406  -4.802051  0.000000
  0.000000  0.000000  0.000000


  -1.502257  2.409171  0.000000
  2.409171  -3.910707  0.000000
  0.000000  0.000000  0.000000


  -1.723432  2.117274  0.000000
  2.117274  -3.136099  0.000000
  0.000000  0.000000  0.000000


  -1.535616  2.216376  0.000000
  2.216376  -3.102080  0.000000
  0.000000  0.000000  0.000000


  -1.593397  2.457344  0.000000
  2.457344  -3.888002  0.000000
  0.000000  0.000000  0.000000


  -1.750535  1.932659  0.000000
  1.932659  -2.336132  0.000000
  0.000000  0.000000  0.000000


  -1.526265  1.992514  0.000000
  1.992514  -2.320396  0.000000
  0.000000  0.000000  0.000000


  -1.610743  2.256288  0.000000
  2.256288  -3.093262  0.000000
  0.000000  0.000000  0.000000


  -1.520821  2.596813  0.000000
  2.596813  -4.753483  0.000000
  0.000000  0.000000  0.000000


  -1.317753  2.679281  0.000000
  2.679281  -5.702164  0.000000
  0.000000  0.000000  0.000000


  -1.249713  2.354330  0.000000
  2.354330  -5.755022  0.000000
  0.000000  0.000000  0.000000


  -1.759099  2.344407  0.000000
  2.344407  -3.942513  0.000000
  0.000000  0.000000  0.000000


  -1.612467  2.676079  0.000000
  2.676079  -4.760447  0.000000
  0.000000  0.000000  0.000000


  -1.852781  2.413264  0.000000
  2.413264  -3.948569  0.000000
  0.000000  0.000000  0.000000


  -1.758265  2.542717  0.000000
  2.542717  -4.827342  0.000000
  0.000000  0.000000  0.000000


  -1.653810  2.492013  0.000000
  2.492013  -3.923617  0.000000
  0.000000  0.000000  0.000000


  -1.888950  2.188815  0.000000
  2.188815  -3.082622  0.000000
  0.000000  0.000000  0.000000


  -1.655714  2.231997  0.000000
  2.231997  -3.075011  0.000000
  0.000000  0.000000  0.000000


  -1.742375  2.532753  0.000000
  2.532753  -3.882087  0.000000
  0.000000  0.000000  0.000000


  -1.692678  2.723568  0.000000
  2.723568  -4.787792  0.000000
  0.000000  0.000000  0.000000


  -1.653023  2.935740  0.000000
  2.935740  -5.676409  0.000000
  0.000000  0.000000  0.000000


  -1.789412  2.146334  0.000000
  2.146334  -3.142274  0.000000
  0.000000  0.000000  0.000000


  -1.463894  2.839586  0.000000
  2.839586  -5.723042  0.000000
  0.000000  0.000000  0.000000


  -1.574129  2.857873  0.000000
  2.857873  -5.609898  0.000000
  0.000000  0.000000  0.000000


  -1.552492  2.586437  0.000000
  2.586437  -5.736461  0.000000
  0.000000  0.000000  0.000000


  -1.690871  1.732016  0.000000
  1.732016  -1.567566  0.000000
  0.000000  0.000000  0.000000


  -1.452061  1.769190  0.000000
  1.769190  -1.564037  0.000000
  0.000000  0.000000  0.000000


  -1.752960  1.726070  0.000000
  1.726070  -1.530252  0.000000
  0.000000  0.000000  0.000000


  -1.814730  1.961594  0.000000
  1.961594  -2.289388  0.000000
  0.000000  0.000000  0.000000


  -1.597992  2.002960  0.000000
  2.002960  -2.282241  0.000000
  0.000000  0.000000  0.000000


  -1.796220  1.687386  0.000000
  1.687386  -1.477538  0.000000
  0.000000  0.000000  0.000000


  -1.550591  1.754970  0.000000
  1.754970  -1.458973  0.000000
  0.000000  0.000000  0.000000


  -1.654035  2.023262  0.000000
  2.023262  -2.227988  0.000000
  0.000000  0.000000  0.000000


  -1.962547  2.207018  0.000000
  2.207018  -3.063279  0.000000
  0.000000  0.000000  0.000000


  -1.370536  1.553596  0.000000
  1.553596  -0.873930  0.000000
  0.000000  0.000000  0.000000


  -1.576102  1.277409  0.000000
  1.277409  -0.152320  0.000000
  0.000000  0.000000  0.000000


  -1.612790  1.521181  0.000000
  1.521181  -0.877343  0.000000
  0.000000  0.000000  0.000000


  -1.300460  1.292618  0.000000
  1.292618  -0.159907  0.000000
  0.000000  0.000000  0.000000


  -1.415892  1.547975  0.000000
  1.547975  -0.812886  0.000000
  0.000000  0.000000  0.000000


  -1.407878  1.795707  0.000000
  1.795707  -1.604209  0.000000
  0.000000  0.000000  0.000000


  -1.476230  1.095661  0.000000
  1.095661  0.478307  0.000000
  0.000000  0.000000  0.000000


  -1.282664  1.366216  0.000000
  1.366216  -0.232084  0.000000
  0.000000  0.000000  0.000000


  -1.191791  1.053812  0.000000
  1.053812  0.450740  0.000000
  0.000000  0.000000  0.000000


  -1.363714  0.890339  0.000000
  0.890339  1.101227  0.000000
  0.000000  0.000000  0.000000


  -1.401951  0.826328  0.000000
  0.826328  1.180020  0.000000
  0.000000  0.000000  0.000000


  -1.092187  0.873173  0.000000
  0.873173  1.070467  0.000000
  0.000000  0.000000  0.000000


  -1.254948  0.672831  0.000000
  0.672831  1.660480  0.000000
  0.000000  0.000000  0.000000


  -1.259398  0.579735  0.000000
  0.579735  1.735034  0.000000
  0.000000  0.000000  0.000000


  -1.055967  0.923628  0.000000
  0.923628  1.002522  0.000000
  0.000000  0.000000  0.000000


  -0.949216  0.639767  0.000000
  0.639767  1.629696  0.000000
  0.000000  0.000000  0.000000


  -1.129352  0.481269  0.000000
  0.481269  2.200385  0.000000
  0.000000  0.000000  0.000000


  -0.823554  0.430329  0.000000
  0.430329  2.159208  0.000000
  0.000000  0.000000  0.000000


  -1.018615  0.298037  0.000000
  0.298037  2.693114  0.000000
  0.000000  0.000000  0.000000


  -1.009242  0.183980  0.000000
  0.183980  2.811118  0.000000
  0.000000  0.000000  0.000000


  -1.151608  0.400625  0.000000
  0.400625  2.312333  0.000000
  0.000000  0.000000  0.000000


  -0.949060  0.727694  0.000000
  0.727694  1.546487  0.000000
  0.000000  0.000000  0.000000


  -1.518800  1.038483  0.000000
  1.038483  0.585868  0.000000
  0.000000  0.000000  0.000000


  -1.665149  1.490187  0.000000
  1.490187  -0.825045  0.000000
  0.000000  0.000000  0.000000


  -1.485512  1.760494  0.000000
  1.760494  -1.529070  0.000000
  0.000000  0.000000  0.000000


  -1.738400  1.483724  0.000000
  1.483724  -0.755416  0.000000
  0.000000  0.000000  0.000000


  -0.810660  0.353210  0.000000
  0.353210  2.270936  0.000000
  0.000000  0.000000  0.000000


  -1.012691  0.096124  0.000000
  0.096124  2.936513  0.000000
  0.000000  0.000000  0.000000


  -0.653753  0.033281  0.000000
  0.033281  2.886529  0.000000
  0.000000  0.000000  0.000000


  -0.801237  0.269957  0.000000
  0.269957  2.368317  0.000000
  0.000000  0.000000  0.000000


  -1.615428  1.238108  0.000000
  1.238108  -0.093577  0.000000
  0.000000  0.000000  0.000000


  -0.958000  0.585415  0.000000
  0.585415  1.710856  0.000000
  0.000000  0.000000  0.000000


  -1.477592  3.032253  0.000000
  3.032253  -6.803960  0.000000
  0.000000  0.000000  0.000000


  -1.329629  3.000877  0.000000
  3.000877  -7.007610  0.000000
  0.000000  0.000000  0.000000


  -0.811487  0.506856  0.000000
  0.506856  2.060640  0.000000
  0.000000  0.000000  0.000000


  -1.009074  0.363705  0.000000
  0.363705  2.588136  0.000000
  0.000000  0.000000  0.000000


  -0.808264  0.573979  0.000000
  0.573979  1.973534  0.000000
  0.000000  0.000000  0.000000


  -0.698844  0.319054  0.000000
  0.319054  2.544526  0.000000
  0.000000  0.000000  0.000000


  -0.974236  0.414937  0.000000
  0.414937  2.501433  0.000000
  0.000000  0.000000  0.000000


  -0.718473  0.413449  0.000000
  0.413449  2.473936  0.000000
  0.000000  0.000000  0.000000


  -0.867837  0.220152  0.000000
  0.220152  2.959780  0.000000
  0.000000  0.000000  0.000000


  -0.678951  0.444931  0.000000
  0.444931  2.381653  0.000000
  0.000000  0.000000  0.000000


  -0.849643  0.150415  0.000000
  0.150415  3.051870  0.000000
  0.000000  0.000000  0.000000


  -0.575239  0.115153  0.000000
  0.115153  3.008488  0.000000
  0.000000  0.000000  0.000000


  -0.751146  -0.033279  0.000000
  -0.033279  3.495884  0.000000
  0.000000  0.000000  0.000000


  -0.717351  -0.153610  0.000000
  -0.153610  3.597224  0.000000
  0.000000  0.000000  0.000000


  -0.875690  0.077512  0.000000
  0.077512  3.150410  0.000000
  0.000000  0.000000  0.000000


  -0.426413  -0.163970  0.000000
  -0.163970  3.561812  0.000000
  0.000000  0.000000  0.000000


  -0.682238  0.229976  0.000000
  0.229976  2.647305  0.000000
  0.000000  0.000000  0.000000


  -0.878618  -0.012390  0.000000
  -0.012390  3.285720  0.000000
  0.000000  0.000000  0.000000


  -0.529004  -0.087307  0.000000
  -0.087307  3.234165  0.000000
  0.000000  0.000000  0.000000


  -0.674685  0.140816  0.000000
  0.140816  2.767557  0.000000
  0.000000  0.000000  0.000000


  -0.867038  -0.104633  0.000000
  -0.104633  3.422619  0.000000
  0.000000  0.000000  0.000000


  -0.503511  -0.190467  0.000000
  -0.190467  3.363045  0.000000
  0.000000  0.000000  0.000000


  -0.724300  -0.306921  0.000000
  -0.306921  3.878881  0.000000
  0.000000  0.000000  0.000000


  -0.699654  -0.429401  0.000000
  -0.429401  4.008870  0.000000
  0.000000  0.000000  0.000000


  -0.337098  -0.412115  0.000000
  -0.412115  3.810471  0.000000
  0.000000  0.000000  0.000000


  -0.562756  0.049106  0.000000
  0.049106  3.114101  0.000000
  0.000000  0.000000  0.000000


  -0.722893  -0.205430  0.000000
  -0.205430  3.723577  0.000000
  0.000000  0.000000  0.000000


  -0.394879  -0.313631  0.000000
  -0.313631  3.667284  0.000000
  0.000000  0.000000  0.000000


  -0.561857  -0.407223  0.000000
  -0.407223  4.150050  0.000000
  0.000000  0.000000  0.000000


  -0.244816  -0.505910  0.000000
  -0.505910  4.077485  0.000000
  0.000000  0.000000  0.000000


  -0.566099  -0.509442  0.000000
  -0.509442  4.291827  0.000000
  0.000000  0.000000  0.000000


  -0.445439  -0.595334  0.000000
  -0.595334  4.550063  0.000000
  0.000000  0.000000  0.000000


  -0.380934  -0.770195  0.000000
  -0.770195  4.645247  0.000000
  0.000000  0.000000  0.000000


  -0.217863  -0.605253  0.000000
  -0.605253  4.234601  0.000000
  0.000000  0.000000  0.000000


  -0.383768  -0.870004  0.000000
  -0.870004  4.896409  0.000000
  0.000000  0.000000  0.000000


  0.022314  -1.023444  0.000000
  -1.023444  4.800110  0.000000
  0.000000  0.000000  0.000000


  -0.173891  -0.653499  0.000000
  -0.653499  4.373697  0.000000
  0.000000  0.000000  0.000000


  -0.250804  -0.436019  0.000000
  -0.436019  3.943742  0.000000
  0.000000  0.000000  0.000000


  -0.070207  -0.735911  0.000000
  -0.735911  4.475154  0.000000
  0.000000  0.000000  0.000000


  -0.016773  -0.822179  0.000000
  -0.822179  4.577522  0.000000
  0.000000  0.000000  0.000000


  -0.277762  -0.860463  0.000000
  -0.860463  4.930188  0.000000
  0.000000  0.000000  0.000000


  -0.543318  -0.660316  0.000000
  -0.660316  4.418791  0.000000
  0.000000  0.000000  0.000000


  -0.309574  -0.521127  0.000000
  -0.521127  3.942331  0.000000
  0.000000  0.000000  0.000000


  -0.528340  -0.671989  0.000000
  -0.671989  4.612073  0.000000
  0.000000  0.000000  0.000000


  -0.062538  -0.992494  0.000000
  -0.992494  4.637523  0.000000
  0.000000  0.000000  0.000000


  -0.256151  -0.675489  0.000000
  -0.675489  4.137081  0.000000
  0.000000  0.000000  0.000000


  -0.455513  -0.916487  0.000000
  -0.916487  4.894337  0.000000
  0.000000  0.000000  0.000000


  -0.679642  -0.532671  0.000000
  -0.532671  4.214175  0.000000
  0.000000  0.000000  0.000000


  -1.943314  2.440732  0.000000
  2.440732  -3.918907  0.000000
  0.000000  0.000000  0.000000


  -1.788247  2.789207  0.000000
  2.789207  -4.783042  0.000000
  0.000000  0.000000  0.000000


  -2.043111  2.497626  0.000000
  2.497626  -3.886145  0.000000
  0.000000  0.000000  0.000000


  -1.954938  2.686898  0.000000
  2.686898  -4.827950  0.000000
  0.000000  0.000000  0.000000


  -1.806332  2.547800  0.000000
  2.547800  -3.875602  0.000000
  0.000000  0.000000  0.000000


  -2.056474  2.222233  0.000000
  2.222233  -2.970445  0.000000
  0.000000  0.000000  0.000000


  -1.783293  2.253261  0.000000
  2.253261  -2.971175  0.000000
  0.000000  0.000000  0.000000


  -1.890821  2.565680  0.000000
  2.565680  -3.802317  0.000000
  0.000000  0.000000  0.000000


  -1.875641  2.826608  0.000000
  2.826608  -4.759281  0.000000
  0.000000  0.000000  0.000000


  -1.843791  3.102658  0.000000
  3.102658  -5.747018  0.000000
  0.000000  0.000000  0.000000


  -1.741987  3.012097  0.000000
  3.012097  -5.740954  0.000000
  0.000000  0.000000  0.000000


  -1.874011  2.903912  0.000000
  2.903912  -5.784927  0.000000
  0.000000  0.000000  0.000000


  -1.086455  0.815975  0.000000
  0.815975  1.160125  0.000000
  0.000000  0.000000  0.000000


  -1.290406  0.526614  0.000000
  0.526614  1.848369  0.000000
  0.000000  0.000000  0.000000


  -0.955668  0.489345  0.000000
  0.489345  1.813625  0.000000
  0.000000  0.000000  0.000000


  -1.102017  0.760809  0.000000
  0.760809  1.251568  0.000000
  0.000000  0.000000  0.000000


  -1.291302  0.442910  0.000000
  0.442910  1.928518  0.000000
  0.000000  0.000000  0.000000


  -1.420515  0.745166  0.000000
  0.745166  1.273839  0.000000
  0.000000  0.000000  0.000000


  -1.216680  0.975186  0.000000
  0.975186  0.616807  0.000000
  0.000000  0.000000  0.000000


  -1.444732  0.702460  0.000000
  0.702460  1.348333  0.000000
  0.000000  0.000000  0.000000


  -1.538001  0.982017  0.000000
  0.982017  0.651255  0.000000
  0.000000  0.000000  0.000000


  -1.338787  1.196902  0.000000
  1.196902  -0.034374  0.000000
  0.000000  0.000000  0.000000


  -1.582501  0.936127  0.000000
  0.936127  0.757056  0.000000
  0.000000  0.000000  0.000000


  -1.673646  1.214942  0.000000
  1.214942  -0.005346  0.000000
  0.000000  0.000000  0.000000


  -1.471711  1.468977  0.000000
  1.468977  -0.694308  0.000000
  0.000000  0.000000  0.000000


  -1.423086  1.494120  0.000000
  1.494120  -0.764813  0.000000
  0.000000  0.000000  0.000000


  -1.700914  1.165702  0.000000
  1.165702  0.094792  0.000000
  0.000000  0.000000  0.000000


  -1.756756  1.433871  0.000000
  1.433871  -0.689360  0.000000
  0.000000  0.000000  0.000000


  -1.591373  1.740056  0.000000
  1.740056  -1.436281  0.000000
  0.000000  0.000000  0.000000


  -1.816094  1.411768  0.000000
  1.411768  -0.614231  0.000000
  0.000000  0.000000  0.000000


  -1.856597  1.680283  0.000000
  1.680283  -1.448477  0.000000
  0.000000  0.000000  0.000000


  -1.089999  0.673716  0.000000
  0.673716  1.316435  0.000000
  0.000000  0.000000  0.000000


  -1.306483  0.368326  0.000000
  0.368326  2.055760  0.000000
  0.000000  0.000000  0.000000


  -0.925193  0.320834  0.000000
  0.320834  2.011037  0.000000
  0.000000  0.000000  0.000000


  -1.100587  0.599386  0.000000
  0.599386  1.433595  0.000000
  0.000000  0.000000  0.000000


  -1.215522  0.885680  0.000000
  0.885680  0.717578  0.000000
  0.000000  0.000000  0.000000


  -1.458914  0.605031  0.000000
  0.605031  1.470260  0.000000
  0.000000  0.000000  0.000000


  -1.237466  0.844411  0.000000
  0.844411  0.805644  0.000000
  0.000000  0.000000  0.000000


  -1.469980  0.539747  0.000000
  0.539747  1.567199  0.000000
  0.000000  0.000000  0.000000


  -1.591599  0.855768  0.000000
  0.855768  0.850588  0.000000
  0.000000  0.000000  0.000000


  -1.364394  1.077141  0.000000
  1.077141  0.135426  0.000000
  0.000000  0.000000  0.000000


  -1.623602  0.815759  0.000000
  0.815759  0.963853  0.000000
  0.000000  0.000000  0.000000


  -1.725169  1.112748  0.000000
  1.112748  0.182007  0.000000
  0.000000  0.000000  0.000000


  -1.075474  0.483543  0.000000
  0.483543  1.515810  0.000000
  0.000000  0.000000  0.000000


  -1.229573  0.740077  0.000000
  0.740077  0.916788  0.000000
  0.000000  0.000000  0.000000


  -1.482475  0.450761  0.000000
  0.450761  1.747684  0.000000
  0.000000  0.000000  0.000000


  -1.044595  0.328849  0.000000
  0.328849  1.678117  0.000000
  0.000000  0.000000  0.000000


  -1.244671  0.666203  0.000000
  0.666203  1.059997  0.000000
  0.000000  0.000000  0.000000


  -1.512106  1.354016  0.000000
  1.354016  -0.547449  0.000000
  0.000000  0.000000  0.000000


  -1.499574  1.424482  0.000000
  1.424482  -0.631193  0.000000
  0.000000  0.000000  0.000000


  -1.300572  0.284308  0.000000
  0.284308  2.179725  0.000000
  0.000000  0.000000  0.000000


  -0.928055  0.231690  0.000000
  0.231690  2.125960  0.000000
  0.000000  0.000000  0.000000


  -1.148642  0.043446  0.000000
  0.043446  2.759022  0.000000
  0.000000  0.000000  0.000000


  -1.135168  -0.077660  0.000000
  -0.077660  2.916675  0.000000
  0.000000  0.000000  0.000000


  -0.728248  -0.023064  0.000000
  -0.023064  2.698903  0.000000
  0.000000  0.000000  0.000000


  -1.302633  0.202313  0.000000
  0.202313  2.296722  0.000000
  0.000000  0.000000  0.000000


  -0.912546  0.157592  0.000000
  0.157592  2.256408  0.000000
  0.000000  0.000000  0.000000


  -1.082870  -0.089546  0.000000
  -0.089546  3.137292  0.000000
  0.000000  0.000000  0.000000


  -0.728308  -0.594787  0.000000
  -0.594787  3.254578  0.000000
  0.000000  0.000000  0.000000


  -0.846846  -0.018596  0.000000
  -0.018596  2.428157  0.000000
  0.000000  0.000000  0.000000


  -1.611828  0.702217  0.000000
  0.702217  1.104286  0.000000
  0.000000  0.000000  0.000000


  -0.987678  -0.309387  0.000000
  -0.309387  3.380487  0.000000
  0.000000  0.000000  0.000000


  -0.726496  -0.340559  0.000000
  -0.340559  3.311805  0.000000
  0.000000  0.000000  0.000000


  -1.312249  0.053225  0.000000
  0.053225  2.529520  0.000000
  0.000000  0.000000  0.000000


  -0.998953  0.254913  0.000000
  0.254913  1.823172  0.000000
  0.000000  0.000000  0.000000


  -1.230059  -0.040139  0.000000
  -0.040139  2.612211  0.000000
  0.000000  0.000000  0.000000


  -1.503664  0.328454  0.000000
  0.328454  1.875497  0.000000
  0.000000  0.000000  0.000000


  -1.030697  0.196762  0.000000
  0.196762  1.406388  0.000000
  0.000000  0.000000  0.000000


  -0.709955  -0.222492  0.000000
  -0.222492  2.511075  0.000000
  0.000000  0.000000  0.000000


  -1.180478  0.399078  0.000000
  0.399078  1.865074  0.000000
  0.000000  0.000000  0.000000


  -1.355813  1.135194  0.000000
  1.135194  0.057266  0.000000
  0.000000  0.000000  0.000000


  -1.168426  0.162875  0.000000
  0.162875  2.626004  0.000000
  0.000000  0.000000  0.000000


  -1.386457  1.003367  0.000000
  1.003367  0.265559  0.000000
  0.000000  0.000000  0.000000


  -1.752530  1.068737  0.000000
  1.068737  0.319368  0.000000
  0.000000  0.000000  0.000000


  -1.485434  1.253795  0.000000
  1.253795  -0.428853  0.000000
  0.000000  0.000000  0.000000


  -1.795404  0.944347  0.000000
  0.944347  0.445041  0.000000
  0.000000  0.000000  0.000000


  -1.909246  1.337575  0.000000
  1.337575  -0.372058  0.000000
  0.000000  0.000000  0.000000


  -1.142144  1.489920  0.000000
  1.489920  -0.879635  0.000000
  0.000000  0.000000  0.000000


  -1.007437  1.697537  0.000000
  1.697537  -1.402273  0.000000
  0.000000  0.000000  0.000000


  -1.019393  1.598419  0.000000
  1.598419  -0.834870  0.000000
  0.000000  0.000000  0.000000


  -1.113276  1.599761  0.000000
  1.599761  -1.429207  0.000000
  0.000000  0.000000  0.000000


  -0.971665  1.786234  0.000000
  1.786234  -1.936611  0.000000
  0.000000  0.000000  0.000000


  -1.899742  1.955662  0.000000
  1.955662  -2.246325  0.000000
  0.000000  0.000000  0.000000


  -1.715954  2.269134  0.000000
  2.269134  -3.047804  0.000000
  0.000000  0.000000  0.000000


  -1.985686  1.988026  0.000000
  1.988026  -2.174874  0.000000
  0.000000  0.000000  0.000000


  -1.193425  1.009618  0.000000
  1.009618  0.554217  0.000000
  0.000000  0.000000  0.000000


  -0.405086  1.403363  0.000000
  1.403363  0.432951  0.000000
  0.000000  0.000000  0.000000


  -1.174267  0.836045  0.000000
  0.836045  1.422306  0.000000
  0.000000  0.000000  0.000000


  -0.915619  0.831625  0.000000
  0.831625  1.402116  0.000000
  0.000000  0.000000  0.000000


  -1.074131  0.662921  0.000000
  0.662921  1.945487  0.000000
  0.000000  0.000000  0.000000


  -0.815840  0.644853  0.000000
  0.644853  1.912925  0.000000
  0.000000  0.000000  0.000000


  -2.037073  1.951896  0.000000
  1.951896  -2.072133  0.000000
  0.000000  0.000000  0.000000


  -0.457694  0.063113  0.000000
  0.063113  3.423568  0.000000
  0.000000  0.000000  0.000000


  -0.186961  -0.049110  0.000000
  -0.049110  3.353658  0.000000
  0.000000  0.000000  0.000000


  -0.758968  1.454325  0.000000
  1.454325  -1.897508  0.000000
  0.000000  0.000000  0.000000


  -0.649410  1.621125  0.000000
  1.621125  -2.166734  0.000000
  0.000000  0.000000  0.000000


  -0.674807  1.404922  0.000000
  1.404922  -2.258473  0.000000
  0.000000  0.000000  0.000000


  -0.702271  1.426398  0.000000
  1.426398  -1.768410  0.000000
  0.000000  0.000000  0.000000


  -0.593052  1.575426  0.000000
  1.575426  -2.010172  0.000000
  0.000000  0.000000  0.000000


  -0.622131  1.367618  0.000000
  1.367618  -2.093343  0.000000
  0.000000  0.000000  0.000000


  -0.650075  1.404735  0.000000
  1.404735  -1.620980  0.000000
  0.000000  0.000000  0.000000


  -0.622930  1.585806  0.000000
  1.585806  -2.734140  0.000000
  0.000000  0.000000  0.000000


  -0.590280  1.337663  0.000000
  1.337663  -2.868797  0.000000
  0.000000  0.000000  0.000000


  -0.548435  1.517499  0.000000
  1.517499  -3.500084  0.000000
  0.000000  0.000000  0.000000


  -0.524288  1.473617  0.000000
  1.473617  -3.229285  0.000000
  0.000000  0.000000  0.000000


  -0.565635  1.535194  0.000000
  1.535194  -2.553989  0.000000
  0.000000  0.000000  0.000000


  -0.570994  1.279924  0.000000
  1.279924  -2.660414  0.000000
  0.000000  0.000000  0.000000


  -0.503690  1.440724  0.000000
  1.440724  -2.809889  0.000000
  0.000000  0.000000  0.000000


  -0.425195  1.098730  0.000000
  1.098730  -3.186839  0.000000
  0.000000  0.000000  0.000000


  -0.518776  1.240946  0.000000
  1.240946  -2.459004  0.000000
  0.000000  0.000000  0.000000


  -0.486244  1.224130  0.000000
  1.224130  -3.653385  0.000000
  0.000000  0.000000  0.000000


  -0.459984  1.384699  0.000000
  1.384699  -2.520712  0.000000
  0.000000  0.000000  0.000000


  -0.526367  1.484730  0.000000
  1.484730  -2.277574  0.000000
  0.000000  0.000000  0.000000


  -0.580796  1.323922  0.000000
  1.323922  -1.916515  0.000000
  0.000000  0.000000  0.000000


  -0.489863  1.445005  0.000000
  1.445005  -2.068805  0.000000
  0.000000  0.000000  0.000000


  -0.562716  1.527282  0.000000
  1.527282  -1.775178  0.000000
  0.000000  0.000000  0.000000


  -0.622923  1.392880  0.000000
  1.392880  -1.396110  0.000000
  0.000000  0.000000  0.000000


  -0.516085  1.493187  0.000000
  1.493187  -1.627672  0.000000
  0.000000  0.000000  0.000000


  -0.608696  1.588897  0.000000
  1.588897  -1.301719  0.000000
  0.000000  0.000000  0.000000


  -0.572911  1.560592  0.000000
  1.560592  -1.218156  0.000000
  0.000000  0.000000  0.000000


  -0.553715  1.370941  0.000000
  1.370941  -1.283584  0.000000
  0.000000  0.000000  0.000000


  -0.517963  1.498854  0.000000
  1.498854  -1.380907  0.000000
  0.000000  0.000000  0.000000


  -0.486766  1.264934  0.000000
  1.264934  -1.554010  0.000000
  0.000000  0.000000  0.000000


  -0.523652  1.364252  0.000000
  1.364252  -1.189482  0.000000
  0.000000  0.000000  0.000000


  -0.502987  1.201161  0.000000
  1.201161  -2.170068  0.000000
  0.000000  0.000000  0.000000


  -0.423186  1.344101  0.000000
  1.344101  -2.285385  0.000000
  0.000000  0.000000  0.000000


  -0.412609  1.066529  0.000000
  1.066529  -2.412304  0.000000
  0.000000  0.000000  0.000000


  -0.475324  1.177563  0.000000
  1.177563  -1.953228  0.000000
  0.000000  0.000000  0.000000


  -0.380114  1.281244  0.000000
  1.281244  -2.084799  0.000000
  0.000000  0.000000  0.000000


  -0.388542  1.035203  0.000000
  1.035203  -2.152165  0.000000
  0.000000  0.000000  0.000000


  -0.436855  1.152083  0.000000
  1.152083  -1.719210  0.000000
  0.000000  0.000000  0.000000


  -0.551677  1.298312  0.000000
  1.298312  -1.689037  0.000000
  0.000000  0.000000  0.000000


  -0.449373  1.420031  0.000000
  1.420031  -1.848952  0.000000
  0.000000  0.000000  0.000000


  -0.367050  1.211335  0.000000
  1.211335  -2.788216  0.000000
  0.000000  0.000000  0.000000


  -0.342244  1.162790  0.000000
  1.162790  -2.565382  0.000000
  0.000000  0.000000  0.000000


  -0.282488  0.875354  0.000000
  0.875354  -2.671904  0.000000
  0.000000  0.000000  0.000000


  -0.644491  1.389609  0.000000
  1.389609  -3.106345  0.000000
  0.000000  0.000000  0.000000


  -0.581392  1.580305  0.000000
  1.580305  -3.760509  0.000000
  0.000000  0.000000  0.000000


  -0.686204  1.448495  0.000000
  1.448495  -3.357029  0.000000
  0.000000  0.000000  0.000000


  -0.545162  1.322342  0.000000
  1.322342  -3.903736  0.000000
  0.000000  0.000000  0.000000


  -0.608602  1.649097  0.000000
  1.649097  -4.029034  0.000000
  0.000000  0.000000  0.000000


  -0.428542  1.136300  0.000000
  1.136300  -3.410687  0.000000
  0.000000  0.000000  0.000000


  -0.703468  1.419328  0.000000
  1.419328  -2.485425  0.000000
  0.000000  0.000000  0.000000


  -0.498684  1.494352  0.000000
  1.494352  -1.122210  0.000000
  0.000000  0.000000  0.000000


  -0.439395  1.400924  0.000000
  1.400924  -1.614618  0.000000
  0.000000  0.000000  0.000000


  -0.511252  1.539324  0.000000
  1.539324  -1.024711  0.000000
  0.000000  0.000000  0.000000


  -0.582587  1.417778  0.000000
  1.417778  -0.745481  0.000000
  0.000000  0.000000  0.000000


  -0.294435  1.109863  0.000000
  1.109863  -2.369040  0.000000
  0.000000  0.000000  0.000000


  -0.359413  1.246462  0.000000
  1.246462  -1.823611  0.000000
  0.000000  0.000000  0.000000


  -0.443222  1.068507  0.000000
  1.068507  -2.736955  0.000000
  0.000000  0.000000  0.000000


  -0.396721  1.222218  0.000000
  1.222218  -3.072308  0.000000
  0.000000  0.000000  0.000000


  -0.432873  1.258515  0.000000
  1.258515  -1.347808  0.000000
  0.000000  0.000000  0.000000


  -0.840710  1.814311  0.000000
  1.814311  -2.953382  0.000000
  0.000000  0.000000  0.000000


  -0.327591  0.969981  0.000000
  0.969981  -2.920689  0.000000
  0.000000  0.000000  0.000000


  -0.340325  0.966042  0.000000
  0.966042  -1.932162  0.000000
  0.000000  0.000000  0.000000


  -0.297604  -0.207640  0.000000
  -0.207640  3.692225  0.000000
  0.000000  0.000000  0.000000


  -0.856033  1.658827  0.000000
  1.658827  -1.161363  0.000000
  0.000000  0.000000  0.000000


  -0.496139  1.583295  0.000000
  1.583295  -0.063387  0.000000
  0.000000  0.000000  0.000000


  -0.501895  1.461518  0.000000
  1.461518  0.151545  0.000000
  0.000000  0.000000  0.000000


  -0.450368  1.573093  0.000000
  1.573093  -0.002161  0.000000
  0.000000  0.000000  0.000000


  -0.412520  1.481028  0.000000
  1.481028  0.154037  0.000000
  0.000000  0.000000  0.000000


  -0.490802  1.493416  0.000000
  1.493416  -0.050693  0.000000
  0.000000  0.000000  0.000000


  -0.434403  1.464460  0.000000
  1.464460  0.176373  0.000000
  0.000000  0.000000  0.000000


  -0.548420  0.171049  0.000000
  0.171049  2.914278  0.000000
  0.000000  0.000000  0.000000


  -0.434548  0.731352  0.000000
  0.731352  1.971824  0.000000
  0.000000  0.000000  0.000000


  -0.311774  0.656091  0.000000
  0.656091  1.957417  0.000000
  0.000000  0.000000  0.000000


  -0.263131  -0.936288  0.000000
  -0.936288  5.065630  0.000000
  0.000000  0.000000  0.000000


  -0.117937  -0.530988  0.000000
  -0.530988  4.202788  0.000000
  0.000000  0.000000  0.000000


  -1.313093  2.010586  0.000000
  2.010586  -3.692188  0.000000
  0.000000  0.000000  0.000000


  -0.923615  1.594137  0.000000
  1.594137  -0.747973  0.000000
  0.000000  0.000000  0.000000


  -1.038971  1.496813  0.000000
  1.496813  -0.790071  0.000000
  0.000000  0.000000  0.000000


  -1.860966  2.619281  0.000000
  2.619281  -4.827948  0.000000
  0.000000  0.000000  0.000000


  -0.613553  -0.314358  0.000000
  -0.314358  3.997272  0.000000
  0.000000  0.000000  0.000000


  -0.416742  -0.056854  0.000000
  -0.056854  3.456479  0.000000
  0.000000  0.000000  0.000000


  -0.614547  -0.270048  0.000000
  -0.270048  3.873445  0.000000
  0.000000  0.000000  0.000000


  -0.419726  -0.029678  0.000000
  -0.029678  3.324248  0.000000
  0.000000  0.000000  0.000000


  -0.602742  -0.141940  0.000000
  -0.141940  3.746351  0.000000
  0.000000  0.000000  0.000000


  -0.248478  0.787948  0.000000
  0.787948  -2.462048  0.000000
  0.000000  0.000000  0.000000


  -0.873384  0.936751  0.000000
  0.936751  1.300039  0.000000
  0.000000  0.000000  0.000000


  -0.348835  1.178489  0.000000
  1.178489  0.930262  0.000000
  0.000000  0.000000  0.000000


  -1.868260  1.383566  0.000000
  1.383566  -0.509675  0.000000
  0.000000  0.000000  0.000000


  -1.114667  0.922038  0.000000
  0.922038  1.308242  0.000000
  0.000000  0.000000  0.000000


  -0.319925  1.025679  0.000000
  1.025679  1.200068  0.000000
  0.000000  0.000000  0.000000


  -0.372792  0.950059  0.000000
  0.950059  1.418346  0.000000
  0.000000  0.000000  0.000000


  -0.281003  1.026302  0.000000
  1.026302  1.106763  0.000000
  0.000000  0.000000  0.000000


  -0.274110  0.883558  0.000000
  0.883558  1.371076  0.000000
  0.000000  0.000000  0.000000


  -0.378956  1.096662  0.000000
  1.096662  1.134708  0.000000
  0.000000  0.000000  0.000000


  -0.313104  1.197557  0.000000
  1.197557  0.842257  0.000000
  0.000000  0.000000  0.000000


  -0.330303  0.973658  0.000000
  0.973658  1.290109  0.000000
  0.000000  0.000000  0.000000


  -0.301963  0.783923  0.000000
  0.783923  1.592683  0.000000
  0.000000  0.000000  0.000000


  -0.343366  0.772893  0.000000
  0.772893  1.704706  0.000000
  0.000000  0.000000  0.000000


  -0.380740  1.222226  0.000000
  1.222226  0.861954  0.000000
  0.000000  0.000000  0.000000


  -0.331406  1.102832  0.000000
  1.102832  1.036076  0.000000
  0.000000  0.000000  0.000000


  -0.247889  1.043757  0.000000
  1.043757  0.992353  0.000000
  0.000000  0.000000  0.000000


  -0.287488  0.977916  0.000000
  0.977916  1.170535  0.000000
  0.000000  0.000000  0.000000


  -0.216906  1.039396  0.000000
  1.039396  0.891054  0.000000
  0.000000  0.000000  0.000000


  -0.200952  0.893260  0.000000
  0.893260  1.113419  0.000000
  0.000000  0.000000  0.000000


  -0.304622  1.130108  0.000000
  1.130108  0.930697  0.000000
  0.000000  0.000000  0.000000


  -0.259209  0.985764  0.000000
  0.985764  1.059633  0.000000
  0.000000  0.000000  0.000000


  -0.223825  0.793048  0.000000
  0.793048  1.329764  0.000000
  0.000000  0.000000  0.000000


  -0.260114  0.804477  0.000000
  0.804477  1.442901  0.000000
  0.000000  0.000000  0.000000


  -0.176239  0.721918  0.000000
  0.721918  1.404269  0.000000
  0.000000  0.000000  0.000000


  -0.200877  0.647395  0.000000
  0.647395  1.606018  0.000000
  0.000000  0.000000  0.000000


  -0.283584  0.614196  0.000000
  0.614196  1.807559  0.000000
  0.000000  0.000000  0.000000


  -0.326447  0.767205  0.000000
  0.767205  1.699737  0.000000
  0.000000  0.000000  0.000000


  -0.276776  1.186731  0.000000
  1.186731  0.764658  0.000000
  0.000000  0.000000  0.000000


  -0.342062  1.241899  0.000000
  1.241899  0.796129  0.000000
  0.000000  0.000000  0.000000


  -0.323499  1.308409  0.000000
  1.308409  0.623820  0.000000
  0.000000  0.000000  0.000000


  -0.290781  1.316485  0.000000
  1.316485  0.557448  0.000000
  0.000000  0.000000  0.000000


  -0.382407  1.347660  0.000000
  1.347660  0.649132  0.000000
  0.000000  0.000000  0.000000


  -0.393349  1.449906  0.000000
  1.449906  0.443051  0.000000
  0.000000  0.000000  0.000000


  -0.333282  1.426896  0.000000
  1.426896  0.418516  0.000000
  0.000000  0.000000  0.000000


  -0.350638  1.347317  0.000000
  1.347317  0.579382  0.000000
  0.000000  0.000000  0.000000


  -0.303993  1.420883  0.000000
  1.420883  0.378417  0.000000
  0.000000  0.000000  0.000000


  -0.309924  1.245313  0.000000
  1.245313  0.708809  0.000000
  0.000000  0.000000  0.000000


  -0.424412  1.456598  0.000000
  1.456598  0.444089  0.000000
  0.000000  0.000000  0.000000


  -0.363437  1.447299  0.000000
  1.447299  0.398057  0.000000
  0.000000  0.000000  0.000000


  -0.319788  1.354958  0.000000
  1.354958  0.513216  0.000000
  0.000000  0.000000  0.000000


  -0.168710  0.871512  0.000000
  0.871512  1.004569  0.000000
  0.000000  0.000000  0.000000


  -0.237422  1.185565  0.000000
  1.185565  0.666127  0.000000
  0.000000  0.000000  0.000000


  -0.274685  1.128412  0.000000
  1.128412  0.823654  0.000000
  0.000000  0.000000  0.000000


  -0.218203  1.174325  0.000000
  1.174325  0.571879  0.000000
  0.000000  0.000000  0.000000


  -0.195915  1.036988  0.000000
  1.036988  0.763720  0.000000
  0.000000  0.000000  0.000000


  -0.232897  0.984871  0.000000
  0.984871  0.916638  0.000000
  0.000000  0.000000  0.000000


  -0.174468  1.024435  0.000000
  1.024435  0.635906  0.000000
  0.000000  0.000000  0.000000


  -0.159380  0.884245  0.000000
  0.884245  0.857470  0.000000
  0.000000  0.000000  0.000000


  -0.292170  1.259324  0.000000
  1.259324  0.609452  0.000000
  0.000000  0.000000  0.000000


  -0.263847  1.314481  0.000000
  1.314481  0.482013  0.000000
  0.000000  0.000000  0.000000


  -0.248185  1.302168  0.000000
  1.302168  0.393421  0.000000
  0.000000  0.000000  0.000000


  -0.308953  1.378440  0.000000
  1.378440  0.425933  0.000000
  0.000000  0.000000  0.000000


  -0.285309  1.264862  0.000000
  1.264862  0.500157  0.000000
  0.000000  0.000000  0.000000


  -0.260012  1.144973  0.000000
  1.144973  0.685834  0.000000
  0.000000  0.000000  0.000000


  -0.211570  1.177844  0.000000
  1.177844  0.441895  0.000000
  0.000000  0.000000  0.000000


  -0.269379  1.150059  0.000000
  1.150059  0.553168  0.000000
  0.000000  0.000000  0.000000


  -0.227255  1.160533  0.000000
  1.160533  0.338709  0.000000
  0.000000  0.000000  0.000000


  -0.187813  1.031223  0.000000
  1.031223  0.502250  0.000000
  0.000000  0.000000  0.000000


  -0.276789  1.399426  0.000000
  1.399426  0.257491  0.000000
  0.000000  0.000000  0.000000


  -0.318644  1.284434  0.000000
  1.284434  0.377117  0.000000
  0.000000  0.000000  0.000000


  -0.314649  1.223249  0.000000
  1.223249  0.321232  0.000000
  0.000000  0.000000  0.000000


  -0.366444  1.179751  0.000000
  1.179751  0.284751  0.000000
  0.000000  0.000000  0.000000


  -0.304168  1.293154  0.000000
  1.293154  0.203392  0.000000
  0.000000  0.000000  0.000000


  -0.392405  1.249181  0.000000
  1.249181  0.119065  0.000000
  0.000000  0.000000  0.000000


  -0.486184  1.276271  0.000000
  1.276271  0.205611  0.000000
  0.000000  0.000000  0.000000


  -0.386734  1.295888  0.000000
  1.295888  0.092809  0.000000
  0.000000  0.000000  0.000000


  -0.385816  1.317645  0.000000
  1.317645  0.245241  0.000000
  0.000000  0.000000  0.000000


  -0.445296  1.363088  0.000000
  1.363088  0.155392  0.000000
  0.000000  0.000000  0.000000


  -0.219806  0.984240  0.000000
  0.984240  0.782298  0.000000
  0.000000  0.000000  0.000000


  -0.139616  0.869584  0.000000
  0.869584  0.715404  0.000000
  0.000000  0.000000  0.000000


  -0.194653  0.820969  0.000000
  0.820969  0.888315  0.000000
  0.000000  0.000000  0.000000


  -0.184070  0.805400  0.000000
  0.805400  1.043119  0.000000
  0.000000  0.000000  0.000000


  -0.122202  0.730394  0.000000
  0.730394  0.998617  0.000000
  0.000000  0.000000  0.000000


  -0.297365  1.392235  0.000000
  1.392235  0.167094  0.000000
  0.000000  0.000000  0.000000


  -0.141175  0.848870  0.000000
  0.848870  0.566025  0.000000
  0.000000  0.000000  0.000000


  -0.109575  0.693680  0.000000
  0.693680  0.825194  0.000000
  0.000000  0.000000  0.000000


  -0.284844  1.409628  0.000000
  1.409628  0.320394  0.000000
  0.000000  0.000000  0.000000


  -0.322981  1.454217  0.000000
  1.454217  0.345190  0.000000
  0.000000  0.000000  0.000000


  -0.309986  1.498973  0.000000
  1.498973  0.227172  0.000000
  0.000000  0.000000  0.000000


  -0.296906  1.491672  0.000000
  1.491672  0.193428  0.000000
  0.000000  0.000000  0.000000


  -0.341589  1.505392  0.000000
  1.505392  0.232976  0.000000
  0.000000  0.000000  0.000000


  -0.341659  1.565836  0.000000
  1.565836  0.122810  0.000000
  0.000000  0.000000  0.000000


  -0.312357  1.555430  0.000000
  1.555430  0.116883  0.000000
  0.000000  0.000000  0.000000


  -0.314561  1.508537  0.000000
  1.508537  0.204645  0.000000
  0.000000  0.000000  0.000000


  -0.297960  1.532061  0.000000
  1.532061  0.100995  0.000000
  0.000000  0.000000  0.000000


  -0.315041  1.452517  0.000000
  1.452517  0.280900  0.000000
  0.000000  0.000000  0.000000


  -0.299476  1.460536  0.000000
  1.460536  0.142763  0.000000
  0.000000  0.000000  0.000000


  -0.303275  1.502034  0.000000
  1.502034  0.160402  0.000000
  0.000000  0.000000  0.000000


  -0.339189  1.437371  0.000000
  1.437371  0.222326  0.000000
  0.000000  0.000000  0.000000


  -0.307256  1.482242  0.000000
  1.482242  0.066639  0.000000
  0.000000  0.000000  0.000000


  -0.263531  1.509631  0.000000
  1.509631  0.076850  0.000000
  0.000000  0.000000  0.000000


  -0.347221  1.452552  0.000000
  1.452552  0.123768  0.000000
  0.000000  0.000000  0.000000


  -0.289412  1.536382  0.000000
  1.536382  0.102785  0.000000
  0.000000  0.000000  0.000000


  -0.390915  1.471709  0.000000
  1.471709  0.240554  0.000000
  0.000000  0.000000  0.000000


  -0.361980  1.538274  0.000000
  1.538274  0.110831  0.000000
  0.000000  0.000000  0.000000


  -0.318940  1.540401  0.000000
  1.540401  0.108540  0.000000
  0.000000  0.000000  0.000000


  -0.292994  1.466596  0.000000
  1.466596  0.026144  0.000000
  0.000000  0.000000  0.000000


  -0.257933  1.290323  0.000000
  1.290323  0.291469  0.000000
  0.000000  0.000000  0.000000


  -0.314315  1.383299  0.000000
  1.383299  0.340093  0.000000
  0.000000  0.000000  0.000000


  -0.255482  0.999910  0.000000
  0.999910  0.632851  0.000000
  0.000000  0.000000  0.000000


  -0.229242  1.034178  0.000000
  1.034178  0.351547  0.000000
  0.000000  0.000000  0.000000


  -0.284602  1.538561  0.000000
  1.538561  0.038790  0.000000
  0.000000  0.000000  0.000000


  -0.232902  1.528141  0.000000
  1.528141  0.029803  0.000000
  0.000000  0.000000  0.000000


  -0.263581  1.566562  0.000000
  1.566562  -0.017298  0.000000
  0.000000  0.000000  0.000000


  -0.237114  1.515300  0.000000
  1.515300  -0.004802  0.000000
  0.000000  0.000000  0.000000


  -0.207185  0.834051  0.000000
  0.834051  1.178491  0.000000
  0.000000  0.000000  0.000000


  -0.279809  1.546045  0.000000
  1.546045  0.017963  0.000000
  0.000000  0.000000  0.000000


  -0.298597  1.590892  0.000000
  1.590892  -0.054461  0.000000
  0.000000  0.000000  0.000000


  -0.333291  1.542740  0.000000
  1.542740  -0.009057  0.000000
  0.000000  0.000000  0.000000


  -0.280970  1.523237  0.000000
  1.523237  -0.094047  0.000000
  0.000000  0.000000  0.000000


  -0.338813  1.597574  0.000000
  1.597574  -0.107420  0.000000
  0.000000  0.000000  0.000000


  -0.298444  1.575056  0.000000
  1.575056  0.036624  0.000000
  0.000000  0.000000  0.000000


  -0.378354  1.523399  0.000000
  1.523399  -0.057842  0.000000
  0.000000  0.000000  0.000000


  -0.341025  1.509478  0.000000
  1.509478  -0.162016  0.000000
  0.000000  0.000000  0.000000


  -0.204032  1.513702  0.000000
  1.513702  -0.045974  0.000000
  0.000000  0.000000  0.000000


  -0.309869  1.577927  0.000000
  1.577927  -0.173853  0.000000
  0.000000  0.000000  0.000000


  -0.290429  1.467565  0.000000
  1.467565  -0.241022  0.000000
  0.000000  0.000000  0.000000


  -0.313436  1.524787  0.000000
  1.524787  -0.330844  0.000000
  0.000000  0.000000  0.000000


  -0.262723  1.533550  0.000000
  1.533550  -0.203549  0.000000
  0.000000  0.000000  0.000000


  -0.256822  1.570558  0.000000
  1.570558  -0.107193  0.000000
  0.000000  0.000000  0.000000


  -0.210353  1.483437  0.000000
  1.483437  -0.155692  0.000000
  0.000000  0.000000  0.000000


  -0.201255  1.510910  0.000000
  1.510910  -0.103777  0.000000
  0.000000  0.000000  0.000000


  -0.097667  1.407927  0.000000
  1.407927  -0.174930  0.000000
  0.000000  0.000000  0.000000


  -0.103178  1.440270  0.000000
  1.440270  -0.054228  0.000000
  0.000000  0.000000  0.000000


  -0.189888  1.452181  0.000000
  1.452181  -0.185861  0.000000
  0.000000  0.000000  0.000000


  -0.090214  1.435650  0.000000
  1.435650  -0.071809  0.000000
  0.000000  0.000000  0.000000


  -0.006362  1.450722  0.000000
  1.450722  -0.119578  0.000000
  0.000000  0.000000  0.000000


  -0.206976  1.398874  0.000000
  1.398874  -0.292018  0.000000
  0.000000  0.000000  0.000000


  -0.079476  1.302222  0.000000
  1.302222  -0.333141  0.000000
  0.000000  0.000000  0.000000


  -0.164205  0.624449  0.000000
  0.624449  0.996214  0.000000
  0.000000  0.000000  0.000000


  -0.346890  1.592268  0.000000
  1.592268  -0.020861  0.000000
  0.000000  0.000000  0.000000


  -0.357562  1.575758  0.000000
  1.575758  -0.270777  0.000000
  0.000000  0.000000  0.000000


  -0.326048  1.490649  0.000000
  1.490649  0.246073  0.000000
  0.000000  0.000000  0.000000


  -0.371548  1.585453  0.000000
  1.585453  -0.182629  0.000000
  0.000000  0.000000  0.000000


  -0.228737  0.880417  0.000000
  0.880417  1.247932  0.000000
  0.000000  0.000000  0.000000


  -0.164139  0.753902  0.000000
  0.753902  1.278173  0.000000
  0.000000  0.000000  0.000000


  -0.113282  0.529768  0.000000
  0.529768  1.470486  0.000000
  0.000000  0.000000  0.000000


  -0.322610  1.590813  0.000000
  1.590813  0.015892  0.000000
  0.000000  0.000000  0.000000


  -0.349623  1.308251  0.000000
  1.308251  0.665942  0.000000
  0.000000  0.000000  0.000000


  -0.352504  1.446740  0.000000
  1.446740  -0.351022  0.000000
  0.000000  0.000000  0.000000


  -0.367279  1.519663  0.000000
  1.519663  -0.476480  0.000000
  0.000000  0.000000  0.000000


  -0.415982  1.424769  0.000000
  1.424769  -0.469547  0.000000
  0.000000  0.000000  0.000000


  -0.350978  1.340775  0.000000
  1.340775  -0.587959  0.000000
  0.000000  0.000000  0.000000


  -0.416388  1.570378  0.000000
  1.570378  -0.388308  0.000000
  0.000000  0.000000  0.000000


  -0.455587  1.504872  0.000000
  1.504872  -0.233976  0.000000
  0.000000  0.000000  0.000000


  -0.413483  1.493771  0.000000
  1.493771  -0.231077  0.000000
  0.000000  0.000000  0.000000


  -0.410232  1.516331  0.000000
  1.516331  -0.652348  0.000000
  0.000000  0.000000  0.000000


  -0.364183  1.425780  0.000000
  1.425780  -0.735375  0.000000
  0.000000  0.000000  0.000000


  -0.318102  1.423435  0.000000
  1.423435  -0.499192  0.000000
  0.000000  0.000000  0.000000


  -0.134195  0.584078  0.000000
  0.584078  1.207694  0.000000
  0.000000  0.000000  0.000000


  -0.305880  1.373572  0.000000
  1.373572  -0.417540  0.000000
  0.000000  0.000000  0.000000


  -0.266103  1.464195  0.000000
  1.464195  -0.361046  0.000000
  0.000000  0.000000  0.000000


  -0.303978  0.874257  0.000000
  0.874257  1.482329  0.000000
  0.000000  0.000000  0.000000


  -0.400230  0.760029  0.000000
  0.760029  1.840785  0.000000
  0.000000  0.000000  0.000000


  -0.297854  0.775992  0.000000
  0.775992  1.587871  0.000000
  0.000000  0.000000  0.000000


  -0.224396  0.829870  0.000000
  0.829870  0.711763  0.000000
  0.000000  0.000000  0.000000


  -0.130353  0.524261  0.000000
  0.524261  1.565768  0.000000
  0.000000  0.000000  0.000000


  -0.192730  0.536705  0.000000
  0.536705  1.688092  0.000000
  0.000000  0.000000  0.000000


  -0.166311  0.641230  0.000000
  0.641230  1.361859  0.000000
  0.000000  0.000000  0.000000


  -0.223223  0.454237  0.000000
  0.454237  1.899014  0.000000
  0.000000  0.000000  0.000000


  -1.327176  1.263505  0.000000
  1.263505  -0.102463  0.000000
  0.000000  0.000000  0.000000


  -0.874125  1.583475  0.000000
  1.583475  -0.703802  0.000000
  0.000000  0.000000  0.000000


  -0.983737  1.489978  0.000000
  1.489978  -0.741599  0.000000
  0.000000  0.000000  0.000000


  -0.296644  -0.732742  0.000000
  -0.732742  4.770514  0.000000
  0.000000  0.000000  0.000000


  -0.116870  -0.618694  0.000000
  -0.618694  4.316278  0.000000
  0.000000  0.000000  0.000000


  -0.347226  0.575738  0.000000
  0.575738  2.218946  0.000000
  0.000000  0.000000  0.000000


  -1.679102  2.504366  0.000000
  2.504366  -4.787488  0.000000
  0.000000  0.000000  0.000000


  -0.407335  0.638919  0.000000
  0.638919  2.074324  0.000000
  0.000000  0.000000  0.000000


  -1.351852  1.177439  0.000000
  1.177439  0.284235  0.000000
  0.000000  0.000000  0.000000


  -2.142497  2.513388  0.000000
  2.513388  -3.811723  0.000000
  0.000000  0.000000  0.000000


  -1.966195  2.861490  0.000000
  2.861490  -4.698203  0.000000
  0.000000  0.000000  0.000000


  -2.234199  2.544268  0.000000
  2.544268  -3.730556  0.000000
  0.000000  0.000000  0.000000


  -2.210599  2.805472  0.000000
  2.805472  -4.710463  0.000000
  0.000000  0.000000  0.000000


  -1.944431  2.544989  0.000000
  2.544989  -3.746893  0.000000
  0.000000  0.000000  0.000000


  -2.036160  2.877372  0.000000
  2.877372  -4.635606  0.000000
  0.000000  0.000000  0.000000


  -2.055391  3.187175  0.000000
  3.187175  -5.617290  0.000000
  0.000000  0.000000  0.000000


  -1.961376  3.168948  0.000000
  3.168948  -5.711778  0.000000
  0.000000  0.000000  0.000000


  -2.119651  3.100934  0.000000
  3.100934  -5.735582  0.000000
  0.000000  0.000000  0.000000


  -2.012269  3.556572  0.000000
  3.556572  -6.809377  0.000000
  0.000000  0.000000  0.000000


  -1.856270  3.403711  0.000000
  3.403711  -6.786503  0.000000
  0.000000  0.000000  0.000000


  5.178203  -4.655817  0.000000
  -4.655817  3.127045  0.000000
  0.000000  0.000000  0.000000


  4.535757  -5.035037  0.000000
  -5.035037  3.111670  0.000000
  0.000000  0.000000  0.000000


  4.415321  -3.890074  0.000000
  -3.890074  2.353580  0.000000
  0.000000  0.000000  0.000000


  -0.488924  1.585871  0.000000
  1.585871  -0.517366  0.000000
  0.000000  0.000000  0.000000


  0.874518  -2.449022  0.000000
  -2.449022  6.525576  0.000000
  0.000000  0.000000  0.000000


  0.521972  -2.526693  0.000000
  -2.526693  6.600165  0.000000
  0.000000  0.000000  0.000000


  -0.033282  -0.108223  0.000000
  -0.108223  2.953094  0.000000
  0.000000  0.000000  0.000000


  -0.237313  0.075757  0.000000
  0.075757  3.013880  0.000000
  0.000000  0.000000  0.000000


  -0.119324  0.080701  0.000000
  0.080701  2.799777  0.000000
  0.000000  0.000000  0.000000


  -0.242622  0.023545  0.000000
  0.023545  3.207098  0.000000
  0.000000  0.000000  0.000000


  -0.031011  -0.162191  0.000000
  -0.162191  3.141168  0.000000
  0.000000  0.000000  0.000000


  -0.112476  0.043193  0.000000
  0.043193  2.936160  0.000000
  0.000000  0.000000  0.000000


  -0.315517  0.262337  0.000000
  0.262337  2.854887  0.000000
  0.000000  0.000000  0.000000


  -0.242039  -0.023824  0.000000
  -0.023824  3.370128  0.000000
  0.000000  0.000000  0.000000


  -0.024447  -0.209874  0.000000
  -0.209874  3.299311  0.000000
  0.000000  0.000000  0.000000


  -0.115767  -0.041677  0.000000
  -0.041677  3.163107  0.000000
  0.000000  0.000000  0.000000


  -0.247245  -0.100959  0.000000
  -0.100959  3.576364  0.000000
  0.000000  0.000000  0.000000


  -0.337177  0.116796  0.000000
  0.116796  3.195293  0.000000
  0.000000  0.000000  0.000000


  -0.345090  0.225349  0.000000
  0.225349  3.029787  0.000000
  0.000000  0.000000  0.000000


  -0.011503  -0.287714  0.000000
  -0.287714  3.534987  0.000000
  0.000000  0.000000  0.000000


  -0.132702  -0.479618  0.000000
  -0.479618  4.046060  0.000000
  0.000000  0.000000  0.000000


  -0.094242  -0.106861  0.000000
  -0.106861  3.316936  0.000000
  0.000000  0.000000  0.000000


  -0.315305  -0.012879  0.000000
  -0.012879  3.364244  0.000000
  0.000000  0.000000  0.000000


  -0.232802  0.146380  0.000000
  0.146380  2.965243  0.000000
  0.000000  0.000000  0.000000


  -0.407391  0.257623  0.000000
  0.257623  2.982903  0.000000
  0.000000  0.000000  0.000000


  -0.342612  0.435578  0.000000
  0.435578  2.687814  0.000000
  0.000000  0.000000  0.000000


  -0.268312  -0.261214  0.000000
  -0.261214  3.805221  0.000000
  0.000000  0.000000  0.000000


  -0.245054  0.162321  0.000000
  0.162321  2.811363  0.000000
  0.000000  0.000000  0.000000


  -0.211561  0.292957  0.000000
  0.292957  2.545203  0.000000
  0.000000  0.000000  0.000000


  -0.227270  0.372838  0.000000
  0.372838  2.420348  0.000000
  0.000000  0.000000  0.000000


  -1.550026  1.191400  0.000000
  1.191400  -0.230859  0.000000
  0.000000  0.000000  0.000000


  0.413371  -1.606166  0.000000
  -1.606166  5.794504  0.000000
  0.000000  0.000000  0.000000


  0.019677  -1.568025  0.000000
  -1.568025  5.865771  0.000000
  0.000000  0.000000  0.000000


  0.115661  -1.348031  0.000000
  -1.348031  5.287032  0.000000
  0.000000  0.000000  0.000000


  -0.109341  -1.213081  0.000000
  -1.213081  5.560478  0.000000
  0.000000  0.000000  0.000000


  0.374781  -1.522874  0.000000
  -1.522874  5.529260  0.000000
  0.000000  0.000000  0.000000


  -14.977372  8.629261  0.000000
  8.629261  -5.133162  0.000000
  0.000000  0.000000  0.000000


  -15.320023  9.908018  0.000000
  9.908018  -6.813098  0.000000
  0.000000  0.000000  0.000000


  -2.448604  1.195434  0.000000
  1.195434  -0.278816  0.000000
  0.000000  0.000000  0.000000


  2.333251  -4.169922  0.000000
  -4.169922  7.461453  0.000000
  0.000000  0.000000  0.000000


  1.893597  -4.389772  0.000000
  -4.389772  7.381676  0.000000
  0.000000  0.000000  0.000000


  -0.809804  1.519003  0.000000
  1.519003  -2.904807  0.000000
  0.000000  0.000000  0.000000


  -0.732724  1.771089  0.000000
  1.771089  -3.442538  0.000000
  0.000000  0.000000  0.000000


  -0.082354  1.328296  0.000000
  1.328296  -0.099532  0.000000
  0.000000  0.000000  0.000000


  0.844877  -2.398169  0.000000
  -2.398169  6.538766  0.000000
  0.000000  0.000000  0.000000


  0.406588  -2.359001  0.000000
  -2.359001  6.646501  0.000000
  0.000000  0.000000  0.000000


  -3.189395  0.871370  0.000000
  0.871370  -1.071916  0.000000
  0.000000  0.000000  0.000000


  16.752708  -5.386966  0.000000
  -5.386966  1.701005  0.000000
  0.000000  0.000000  0.000000


  16.687103  -5.616052  0.000000
  -5.616052  0.906343  0.000000
  0.000000  0.000000  0.000000


  14.769519  -4.766025  0.000000
  -4.766025  1.369125  0.000000
  0.000000  0.000000  0.000000


  14.600616  -4.739098  0.000000
  -4.739098  1.419223  0.000000
  0.000000  0.000000  0.000000


  10.569021  -7.542629  0.000000
  -7.542629  5.365205  0.000000
  0.000000  0.000000  0.000000


  -5.849909  4.820163  0.000000
  4.820163  -5.593194  0.000000
  0.000000  0.000000  0.000000


  14.075258  -7.212819  0.000000
  -7.212819  3.606677  0.000000
  0.000000  0.000000  0.000000


  18.970107  -1.792894  0.000000
  -1.792894  0.166036  0.000000
  0.000000  0.000000  0.000000


  -0.293127  -1.211659  0.000000
  -1.211659  0.792437  0.000000
  0.000000  0.000000  0.000000


  1.297039  -3.663975  0.000000
  -3.663975  5.987327  0.000000
  0.000000  0.000000  0.000000


  -0.234222  -0.779584  0.000000
  -0.779584  4.276726  0.000000
  0.000000  0.000000  0.000000


  14.872189  -6.499020  0.000000
  -6.499020  2.794054  0.000000
  0.000000  0.000000  0.000000


  14.707274  -6.831492  0.000000
  -6.831492  2.141898  0.000000
  0.000000  0.000000  0.000000


  13.174755  -6.028462  0.000000
  -6.028462  2.582117  0.000000
  0.000000  0.000000  0.000000


  13.042317  -6.339536  0.000000
  -6.339536  1.852173  0.000000
  0.000000  0.000000  0.000000


  14.565184  -6.919231  0.000000
  -6.919231  2.275955  0.000000
  0.000000  0.000000  0.000000


  12.977586  -6.110083  0.000000
  -6.110083  2.805355  0.000000
  0.000000  0.000000  0.000000


  14.661077  -6.657212  0.000000
  -6.657212  2.972611  0.000000
  0.000000  0.000000  0.000000


  12.810771  -6.474656  0.000000
  -6.474656  2.012458  0.000000
  0.000000  0.000000  0.000000


  14.191890  -7.266512  0.000000
  -7.266512  2.401420  0.000000
  0.000000  0.000000  0.000000


  11.478718  -5.484900  0.000000
  -5.484900  2.257852  0.000000
  0.000000  0.000000  0.000000


  11.319702  -5.821357  0.000000
  -5.821357  1.557001  0.000000
  0.000000  0.000000  0.000000


  9.930889  -4.842395  0.000000
  -4.842395  1.807302  0.000000
  0.000000  0.000000  0.000000


  9.772409  -4.965526  0.000000
  -4.965526  1.934199  0.000000
  0.000000  0.000000  0.000000


  11.331647  -5.625528  0.000000
  -5.625528  2.349306  0.000000
  0.000000  0.000000  0.000000


  11.648363  -5.391409  0.000000
  -5.391409  2.122413  0.000000
  0.000000  0.000000  0.000000


  9.758962  -5.188614  0.000000
  -5.188614  1.128187  0.000000
  0.000000  0.000000  0.000000


  11.211153  -5.916608  0.000000
  -5.916608  1.646478  0.000000
  0.000000  0.000000  0.000000


  9.669181  -5.057489  0.000000
  -5.057489  2.036355  0.000000
  0.000000  0.000000  0.000000


  9.555229  -5.339946  0.000000
  -5.339946  1.337636  0.000000
  0.000000  0.000000  0.000000


  11.132777  -5.989981  0.000000
  -5.989981  1.756947  0.000000
  0.000000  0.000000  0.000000


  11.475247  -5.742974  0.000000
  -5.742974  1.433236  0.000000
  0.000000  0.000000  0.000000


  10.077586  -4.757280  0.000000
  -4.757280  1.699247  0.000000
  0.000000  0.000000  0.000000


  11.635983  -5.664378  0.000000
  -5.664378  1.332171  0.000000
  0.000000  0.000000  0.000000


  9.912782  -5.097417  0.000000
  -5.097417  1.016235  0.000000
  0.000000  0.000000  0.000000


  9.655412  -5.254678  0.000000
  -5.254678  1.219845  0.000000
  0.000000  0.000000  0.000000


  11.048689  -7.526327  0.000000
  -7.526327  5.050188  0.000000
  0.000000  0.000000  0.000000


  10.779351  -7.875856  0.000000
  -7.875856  4.611033  0.000000
  0.000000  0.000000  0.000000


  9.901463  -6.831658  0.000000
  -6.831658  4.485032  0.000000
  0.000000  0.000000  0.000000


  9.649924  -6.788434  0.000000
  -6.788434  4.657691  0.000000
  0.000000  0.000000  0.000000


  -11.171884  5.899694  0.000000
  5.899694  -4.929906  0.000000
  0.000000  0.000000  0.000000


  5.207218  -6.183911  0.000000
  -6.183911  7.332458  0.000000
  0.000000  0.000000  0.000000


  -3.217918  0.473052  0.000000
  0.473052  -0.997597  0.000000
  0.000000  0.000000  0.000000


  2.782111  -3.292944  0.000000
  -3.292944  2.672053  0.000000
  0.000000  0.000000  0.000000


  3.094499  -4.572497  0.000000
  -4.572497  3.160465  0.000000
  0.000000  0.000000  0.000000


  4.339062  -5.804826  0.000000
  -5.804826  7.665681  0.000000
  0.000000  0.000000  0.000000


  3.942846  -6.047308  0.000000
  -6.047308  7.531265  0.000000
  0.000000  0.000000  0.000000


  3.633265  -5.116408  0.000000
  -5.116408  7.046259  0.000000
  0.000000  0.000000  0.000000


  3.124562  -5.411172  0.000000
  -5.411172  6.904483  0.000000
  0.000000  0.000000  0.000000


  3.520804  -5.976582  0.000000
  -5.976582  7.671088  0.000000
  0.000000  0.000000  0.000000


  3.041459  -4.609437  0.000000
  -4.609437  6.305871  0.000000
  0.000000  0.000000  0.000000


  2.859700  -4.571504  0.000000
  -4.571504  6.383667  0.000000
  0.000000  0.000000  0.000000


  4.939556  -6.139882  0.000000
  -6.139882  7.559818  0.000000
  0.000000  0.000000  0.000000


  4.458190  -6.409045  0.000000
  -6.409045  7.450174  0.000000
  0.000000  0.000000  0.000000


  4.337744  -5.571272  0.000000
  -5.571272  6.856997  0.000000
  0.000000  0.000000  0.000000


  4.125099  -5.477338  0.000000
  -5.477338  6.877655  0.000000
  0.000000  0.000000  0.000000


  3.649838  -5.731554  0.000000
  -5.731554  6.791867  0.000000
  0.000000  0.000000  0.000000


  4.239091  -6.261318  0.000000
  -6.261318  7.474966  0.000000
  0.000000  0.000000  0.000000


  4.718290  -6.004490  0.000000
  -6.004490  7.570249  0.000000
  0.000000  0.000000  0.000000


  3.467956  -4.886133  0.000000
  -4.886133  6.186524  0.000000
  0.000000  0.000000  0.000000


  3.285660  -4.810953  0.000000
  -4.810953  6.291347  0.000000
  0.000000  0.000000  0.000000


  3.769977  -5.858569  0.000000
  -5.858569  6.775973  0.000000
  0.000000  0.000000  0.000000


  3.591437  -4.924604  0.000000
  -4.924604  6.112615  0.000000
  0.000000  0.000000  0.000000


  2.995866  -5.156260  0.000000
  -5.156260  6.064291  0.000000
  0.000000  0.000000  0.000000


  3.496711  -5.641498  0.000000
  -5.641498  6.805014  0.000000
  0.000000  0.000000  0.000000


  3.173704  -4.716703  0.000000
  -4.716703  6.277431  0.000000
  0.000000  0.000000  0.000000


  2.704594  -4.958600  0.000000
  -4.958600  6.183018  0.000000
  0.000000  0.000000  0.000000


  3.317644  -5.515475  0.000000
  -5.515475  6.860995  0.000000
  0.000000  0.000000  0.000000


  2.635316  -4.167433  0.000000
  -4.167433  5.506903  0.000000
  0.000000  0.000000  0.000000


  2.447795  -4.075918  0.000000
  -4.075918  5.601141  0.000000
  0.000000  0.000000  0.000000


  3.219217  -5.309400  0.000000
  -5.309400  5.732569  0.000000
  0.000000  0.000000  0.000000


  2.826702  -5.083638  0.000000
  -5.083638  6.168733  0.000000
  0.000000  0.000000  0.000000


  2.698400  -4.259241  0.000000
  -4.259241  5.550992  0.000000
  0.000000  0.000000  0.000000


  2.335255  -4.530817  0.000000
  -4.530817  5.364214  0.000000
  0.000000  0.000000  0.000000


  1.988339  -3.642587  0.000000
  -3.642587  4.837212  0.000000
  0.000000  0.000000  0.000000


  1.824659  -3.529916  0.000000
  -3.529916  4.914669  0.000000
  0.000000  0.000000  0.000000


  2.250810  -4.424051  0.000000
  -4.424051  5.338054  0.000000
  0.000000  0.000000  0.000000


  1.569273  -3.499599  0.000000
  -3.499599  5.050459  0.000000
  0.000000  0.000000  0.000000


  1.754300  -3.718944  0.000000
  -3.718944  4.364316  0.000000
  0.000000  0.000000  0.000000


  2.037574  -4.323232  0.000000
  -4.323232  5.466969  0.000000
  0.000000  0.000000  0.000000


  1.739923  -3.416549  0.000000
  -3.416549  4.924965  0.000000
  0.000000  0.000000  0.000000


  0.980685  -3.626856  0.000000
  -3.626856  5.038801  0.000000
  0.000000  0.000000  0.000000


  1.969426  -4.276073  0.000000
  -4.276073  5.439458  0.000000
  0.000000  0.000000  0.000000


  1.623943  -3.422156  0.000000
  -3.422156  5.057206  0.000000
  0.000000  0.000000  0.000000


  2.293168  -3.997549  0.000000
  -3.997549  5.676868  0.000000
  0.000000  0.000000  0.000000


  2.445285  -4.828833  0.000000
  -4.828833  6.240522  0.000000
  0.000000  0.000000  0.000000


  2.258380  -3.968721  0.000000
  -3.968721  5.663794  0.000000
  0.000000  0.000000  0.000000


  1.785804  -4.215114  0.000000
  -4.215114  5.551044  0.000000
  0.000000  0.000000  0.000000


  2.308182  -4.710818  0.000000
  -4.710818  6.262902  0.000000
  0.000000  0.000000  0.000000


  1.495170  -3.286124  0.000000
  -3.286124  5.054317  0.000000
  0.000000  0.000000  0.000000


  1.760771  -4.109766  0.000000
  -4.109766  5.517800  0.000000
  0.000000  0.000000  0.000000


  2.556371  -4.873289  0.000000
  -4.873289  6.197992  0.000000
  0.000000  0.000000  0.000000


  1.572886  -3.867404  0.000000
  -3.867404  4.550999  0.000000
  0.000000  0.000000  0.000000


  2.086462  -3.828294  0.000000
  -3.828294  5.757985  0.000000
  0.000000  0.000000  0.000000


  2.263634  -4.645848  0.000000
  -4.645848  6.310602  0.000000
  0.000000  0.000000  0.000000


  2.034108  -3.804113  0.000000
  -3.804113  5.881725  0.000000
  0.000000  0.000000  0.000000


  2.638740  -4.333055  0.000000
  -4.333055  6.567247  0.000000
  0.000000  0.000000  0.000000


  1.583295  -4.109446  0.000000
  -4.109446  5.678439  0.000000
  0.000000  0.000000  0.000000


  1.379360  -3.304373  0.000000
  -3.304373  5.380158  0.000000
  0.000000  0.000000  0.000000


  2.097226  -4.008800  0.000000
  -4.008800  5.521304  0.000000
  0.000000  0.000000  0.000000


  1.390449  -3.292589  0.000000
  -3.292589  5.275727  0.000000
  0.000000  0.000000  0.000000


  1.304874  -3.359480  0.000000
  -3.359480  5.703118  0.000000
  0.000000  0.000000  0.000000


  1.710953  -4.361449  0.000000
  -4.361449  6.366392  0.000000
  0.000000  0.000000  0.000000


  3.340997  -4.850332  0.000000
  -4.850332  7.065164  0.000000
  0.000000  0.000000  0.000000


  3.082542  -5.264491  0.000000
  -5.264491  6.812538  0.000000
  0.000000  0.000000  0.000000


  2.382411  -4.615868  0.000000
  -4.615868  5.354585  0.000000
  0.000000  0.000000  0.000000


  2.876115  -4.336508  0.000000
  -4.336508  5.475908  0.000000
  0.000000  0.000000  0.000000


  2.690470  -4.477863  0.000000
  -4.477863  6.393315  0.000000
  0.000000  0.000000  0.000000


  3.014899  -5.358590  0.000000
  -5.358590  6.951416  0.000000
  0.000000  0.000000  0.000000


  3.802573  -5.239880  0.000000
  -5.239880  6.724297  0.000000
  0.000000  0.000000  0.000000


  3.054079  -5.003314  0.000000
  -5.003314  7.337417  0.000000
  0.000000  0.000000  0.000000


  3.913937  -5.903132  0.000000
  -5.903132  6.476625  0.000000
  0.000000  0.000000  0.000000


  3.490468  -4.819282  0.000000
  -4.819282  5.946857  0.000000
  0.000000  0.000000  0.000000


  1.667134  -3.923270  0.000000
  -3.923270  4.592801  0.000000
  0.000000  0.000000  0.000000


  1.282771  -3.734874  0.000000
  -3.734874  4.770730  0.000000
  0.000000  0.000000  0.000000


  1.465776  -3.289351  0.000000
  -3.289351  7.072321  0.000000
  0.000000  0.000000  0.000000


  0.804928  -3.178591  0.000000
  -3.178591  7.239168  0.000000
  0.000000  0.000000  0.000000


  -0.457251  1.303493  0.000000
  1.303493  0.039243  0.000000
  0.000000  0.000000  0.000000


  -0.361010  1.330557  0.000000
  1.330557  0.017436  0.000000
  0.000000  0.000000  0.000000


  1.771563  -3.759426  0.000000
  -3.759426  7.480514  0.000000
  0.000000  0.000000  0.000000


  1.692671  -3.946902  0.000000
  -3.946902  7.196798  0.000000
  0.000000  0.000000  0.000000


  2.001823  -3.460368  0.000000
  -3.460368  1.763578  0.000000
  0.000000  0.000000  0.000000


  0.770782  -2.258474  0.000000
  -2.258474  6.368983  0.000000
  0.000000  0.000000  0.000000


  0.280081  -2.165663  0.000000
  -2.165663  6.523087  0.000000
  0.000000  0.000000  0.000000


  3.484043  -5.221689  0.000000
  -5.221689  7.723333  0.000000
  0.000000  0.000000  0.000000


  2.960251  -5.422705  0.000000
  -5.422705  7.702916  0.000000
  0.000000  0.000000  0.000000


  2.935054  -4.689071  0.000000
  -4.689071  7.027789  0.000000
  0.000000  0.000000  0.000000


  2.797266  -4.588988  0.000000
  -4.588988  6.977254  0.000000
  0.000000  0.000000  0.000000


  2.348763  -4.764354  0.000000
  -4.764354  6.928929  0.000000
  0.000000  0.000000  0.000000


  -3.694083  2.305314  0.000000
  2.305314  -1.979912  0.000000
  0.000000  0.000000  0.000000


  10.381781  -7.489198  0.000000
  -7.489198  5.361148  0.000000
  0.000000  0.000000  0.000000


  10.242190  -7.782104  0.000000
  -7.782104  4.811125  0.000000
  0.000000  0.000000  0.000000


  8.670654  -6.839408  0.000000
  -6.839408  4.990433  0.000000
  0.000000  0.000000  0.000000


  4.744902  -5.359767  0.000000
  -5.359767  3.716511  0.000000
  0.000000  0.000000  0.000000


  5.249041  -5.025681  0.000000
  -5.025681  3.808926  0.000000
  0.000000  0.000000  0.000000


  5.328641  -6.050412  0.000000
  -6.050412  4.479207  0.000000
  0.000000  0.000000  0.000000


  5.897528  -6.135393  0.000000
  -6.135393  4.321733  0.000000
  0.000000  0.000000  0.000000


  6.263575  -5.768508  0.000000
  -5.768508  4.683009  0.000000
  0.000000  0.000000  0.000000


  15.482691  -6.209963  0.000000
  -6.209963  2.472664  0.000000
  0.000000  0.000000  0.000000


  15.331550  -6.541287  0.000000
  -6.541287  1.766578  0.000000
  0.000000  0.000000  0.000000


  13.922846  -5.606077  0.000000
  -5.606077  2.069326  0.000000
  0.000000  0.000000  0.000000


  13.737848  -5.715304  0.000000
  -5.715304  2.154999  0.000000
  0.000000  0.000000  0.000000


  13.585904  -6.040203  0.000000
  -6.040203  1.492602  0.000000
  0.000000  0.000000  0.000000


  15.108440  -6.668433  0.000000
  -6.668433  1.905995  0.000000
  0.000000  0.000000  0.000000


  15.357586  -6.239598  0.000000
  -6.239598  2.498546  0.000000
  0.000000  0.000000  0.000000


  12.158640  -5.110214  0.000000
  -5.110214  1.775115  0.000000
  0.000000  0.000000  0.000000


  11.968500  -5.247217  0.000000
  -5.247217  1.888506  0.000000
  0.000000  0.000000  0.000000


  11.852997  -5.528754  0.000000
  -5.528754  1.206622  0.000000
  0.000000  0.000000  0.000000


  13.386795  -6.177728  0.000000
  -6.177728  1.604687  0.000000
  0.000000  0.000000  0.000000


  10.371121  -4.602849  0.000000
  -4.602849  1.496236  0.000000
  0.000000  0.000000  0.000000


  10.202793  -4.716982  0.000000
  -4.716982  1.579138  0.000000
  0.000000  0.000000  0.000000


  11.835112  -5.289486  0.000000
  -5.289486  2.000749  0.000000
  0.000000  0.000000  0.000000


  10.073596  -5.006461  0.000000
  -5.006461  0.937785  0.000000
  0.000000  0.000000  0.000000


  8.630945  -4.035983  0.000000
  -4.035983  1.177789  0.000000
  0.000000  0.000000  0.000000


  8.429070  -4.152803  0.000000
  -4.152803  1.283629  0.000000
  0.000000  0.000000  0.000000


  8.291350  -4.453185  0.000000
  -4.453185  0.637642  0.000000
  0.000000  0.000000  0.000000


  13.204122  -6.255864  0.000000
  -6.255864  1.720421  0.000000
  0.000000  0.000000  0.000000


  6.823830  -3.467955  0.000000
  -3.467955  0.888664  0.000000
  0.000000  0.000000  0.000000


  6.650998  -3.583802  0.000000
  -3.583802  1.019434  0.000000
  0.000000  0.000000  0.000000


  13.735921  -5.980679  0.000000
  -5.980679  1.369140  0.000000
  0.000000  0.000000  0.000000


  12.348661  -5.014386  0.000000
  -5.014386  1.670264  0.000000
  0.000000  0.000000  0.000000


  11.971349  -5.480716  0.000000
  -5.480716  1.090789  0.000000
  0.000000  0.000000  0.000000


  10.547171  -4.513003  0.000000
  -4.513003  1.387572  0.000000
  0.000000  0.000000  0.000000


  10.185951  -4.970003  0.000000
  -4.970003  0.820090  0.000000
  0.000000  0.000000  0.000000


  8.780664  -3.970504  0.000000
  -3.970504  1.097460  0.000000
  0.000000  0.000000  0.000000


  10.345469  -4.896856  0.000000
  -4.896856  0.726698  0.000000
  0.000000  0.000000  0.000000


  8.927999  -3.903645  0.000000
  -3.903645  1.016458  0.000000
  0.000000  0.000000  0.000000


  8.596746  -4.331084  0.000000
  -4.331084  0.442979  0.000000
  0.000000  0.000000  0.000000


  10.520733  -4.833507  0.000000
  -4.833507  0.655160  0.000000
  0.000000  0.000000  0.000000


  8.751093  -4.260163  0.000000
  -4.260163  0.344062  0.000000
  0.000000  0.000000  0.000000


  13.940649  -5.879397  0.000000
  -5.879397  1.242856  0.000000
  0.000000  0.000000  0.000000


  12.153615  -5.396490  0.000000
  -5.396490  0.984930  0.000000
  0.000000  0.000000  0.000000


  10.757577  -4.423565  0.000000
  -4.423565  1.285372  0.000000
  0.000000  0.000000  0.000000


  12.358929  -5.378457  0.000000
  -5.378457  0.961687  0.000000
  0.000000  0.000000  0.000000


  12.626534  -4.953886  0.000000
  -4.953886  1.520597  0.000000
  0.000000  0.000000  0.000000


  14.233502  -5.830000  0.000000
  -5.830000  1.039198  0.000000
  0.000000  0.000000  0.000000


  10.973360  -4.337140  0.000000
  -4.337140  1.255355  0.000000
  0.000000  0.000000  0.000000


  14.303779  -5.525461  0.000000
  -5.525461  2.065502  0.000000
  0.000000  0.000000  0.000000


  15.730963  -5.578171  0.000000
  -5.578171  1.145182  0.000000
  0.000000  0.000000  0.000000


  15.637429  -6.273373  0.000000
  -6.273373  2.193670  0.000000
  0.000000  0.000000  0.000000


  14.082397  -5.962473  0.000000
  -5.962473  1.815760  0.000000
  0.000000  0.000000  0.000000


  14.888799  -4.873308  0.000000
  -4.873308  0.971049  0.000000
  0.000000  0.000000  0.000000


  13.486745  -4.689465  0.000000
  -4.689465  1.373854  0.000000
  0.000000  0.000000  0.000000


  15.671933  -6.200610  0.000000
  -6.200610  1.081414  0.000000
  0.000000  0.000000  0.000000


  13.397436  -5.531661  0.000000
  -5.531661  1.268390  0.000000
  0.000000  0.000000  0.000000


  8.414738  -4.422230  0.000000
  -4.422230  0.554216  0.000000
  0.000000  0.000000  0.000000


  6.941517  -3.428339  0.000000
  -3.428339  0.803389  0.000000
  0.000000  0.000000  0.000000


  6.784166  -3.751230  0.000000
  -3.751230  0.166840  0.000000
  0.000000  0.000000  0.000000


  5.263525  -2.763611  0.000000
  -2.763611  0.434516  0.000000
  0.000000  0.000000  0.000000


  5.110459  -2.860245  0.000000
  -2.860245  0.551447  0.000000
  0.000000  0.000000  0.000000


  9.174085  -3.823016  0.000000
  -3.823016  0.923003  0.000000
  0.000000  0.000000  0.000000


  10.767067  -4.736016  0.000000
  -4.736016  0.533748  0.000000
  0.000000  0.000000  0.000000


  9.414077  -3.761655  0.000000
  -3.761655  0.801161  0.000000
  0.000000  0.000000  0.000000


  11.152321  -4.801670  0.000000
  -4.801670  0.489718  0.000000
  0.000000  0.000000  0.000000


  9.159682  -4.192516  0.000000
  -4.192516  0.202061  0.000000
  0.000000  0.000000  0.000000


  6.900102  -3.728553  0.000000
  -3.728553  0.096328  0.000000
  0.000000  0.000000  0.000000


  7.082024  -3.372122  0.000000
  -3.372122  0.739405  0.000000
  0.000000  0.000000  0.000000


  5.415801  -2.715473  0.000000
  -2.715473  0.369499  0.000000
  0.000000  0.000000  0.000000


  7.046760  -3.705152  0.000000
  -3.705152  0.045436  0.000000
  0.000000  0.000000  0.000000


  5.216683  -3.085246  0.000000
  -3.085246  -0.248558  0.000000
  0.000000  0.000000  0.000000


  7.292709  -3.292716  0.000000
  -3.292716  0.652825  0.000000
  0.000000  0.000000  0.000000


  8.944548  -4.234004  0.000000
  -4.234004  0.261122  0.000000
  0.000000  0.000000  0.000000


  7.514437  -3.270594  0.000000
  -3.270594  0.590172  0.000000
  0.000000  0.000000  0.000000


  5.624610  -2.677505  0.000000
  -2.677505  0.298545  0.000000
  0.000000  0.000000  0.000000


  3.656958  -2.089372  0.000000
  -2.089372  0.044380  0.000000
  0.000000  0.000000  0.000000


  6.560326  -3.840068  0.000000
  -3.840068  0.302746  0.000000
  0.000000  0.000000  0.000000


  5.068269  -3.125310  0.000000
  -3.125310  -0.179983  0.000000
  0.000000  0.000000  0.000000


  3.509200  -2.125011  0.000000
  -2.125011  0.097951  0.000000
  0.000000  0.000000  0.000000


  3.340539  -2.456847  0.000000
  -2.456847  -0.521262  0.000000
  0.000000  0.000000  0.000000


  1.746555  -1.446453  0.000000
  -1.446453  -0.240453  0.000000
  0.000000  0.000000  0.000000


  1.603583  -1.468313  0.000000
  -1.468313  -0.184683  0.000000
  0.000000  0.000000  0.000000


  6.662283  -3.800239  0.000000
  -3.800239  0.218928  0.000000
  0.000000  0.000000  0.000000


  4.998027  -2.888283  0.000000
  -2.888283  0.618425  0.000000
  0.000000  0.000000  0.000000


  4.850465  -3.201414  0.000000
  -3.201414  -0.040775  0.000000
  0.000000  0.000000  0.000000


  3.338029  -2.178491  0.000000
  -2.178491  0.207189  0.000000
  0.000000  0.000000  0.000000


  3.211449  -2.228250  0.000000
  -2.228250  0.283070  0.000000
  0.000000  0.000000  0.000000


  8.189081  -4.504759  0.000000
  -4.504759  0.689688  0.000000
  0.000000  0.000000  0.000000


  6.564111  -3.654591  0.000000
  -3.654591  1.121466  0.000000
  0.000000  0.000000  0.000000


  8.321013  -4.201721  0.000000
  -4.201721  1.385019  0.000000
  0.000000  0.000000  0.000000


  6.468604  -3.917379  0.000000
  -3.917379  0.408435  0.000000
  0.000000  0.000000  0.000000


  8.070497  -4.578340  0.000000
  -4.578340  0.776662  0.000000
  0.000000  0.000000  0.000000


  6.489255  -3.700638  0.000000
  -3.700638  1.192963  0.000000
  0.000000  0.000000  0.000000


  6.361084  -3.995320  0.000000
  -3.995320  0.515453  0.000000
  0.000000  0.000000  0.000000


  7.980809  -4.643584  0.000000
  -4.643584  0.892908  0.000000
  0.000000  0.000000  0.000000


  6.394808  -3.777015  0.000000
  -3.777015  1.294399  0.000000
  0.000000  0.000000  0.000000


  8.080124  -4.377525  0.000000
  -4.377525  1.597651  0.000000
  0.000000  0.000000  0.000000


  6.297122  -4.041324  0.000000
  -4.041324  0.588990  0.000000
  0.000000  0.000000  0.000000


  7.926562  -4.709881  0.000000
  -4.709881  0.989169  0.000000
  0.000000  0.000000  0.000000


  4.902143  -2.951894  0.000000
  -2.951894  0.685821  0.000000
  0.000000  0.000000  0.000000


  4.791776  -3.223028  0.000000
  -3.223028  0.019808  0.000000
  0.000000  0.000000  0.000000


  4.846177  -3.006984  0.000000
  -3.006984  0.753786  0.000000
  0.000000  0.000000  0.000000


  4.724779  -3.286864  0.000000
  -3.286864  0.108958  0.000000
  0.000000  0.000000  0.000000


  3.131355  -2.304797  0.000000
  -2.304797  0.351725  0.000000
  0.000000  0.000000  0.000000


  3.039451  -2.550696  0.000000
  -2.550696  -0.303084  0.000000
  0.000000  0.000000  0.000000


  3.092741  -2.366517  0.000000
  -2.366517  0.459477  0.000000
  0.000000  0.000000  0.000000


  1.396733  -1.573218  0.000000
  -1.573218  -0.019300  0.000000
  0.000000  0.000000  0.000000


  1.348312  -1.654257  0.000000
  -1.654257  0.080133  0.000000
  0.000000  0.000000  0.000000


  6.359883  -3.882416  0.000000
  -3.882416  1.417704  0.000000
  0.000000  0.000000  0.000000


  3.029355  -2.591688  0.000000
  -2.591688  -0.259067  0.000000
  0.000000  0.000000  0.000000


  1.364371  -1.696057  0.000000
  -1.696057  0.146482  0.000000
  0.000000  0.000000  0.000000


  1.314784  -1.903139  0.000000
  -1.903139  -0.568060  0.000000
  0.000000  0.000000  0.000000


  3.036155  -2.629186  0.000000
  -2.629186  -0.184796  0.000000
  0.000000  0.000000  0.000000


  3.063690  -2.538497  0.000000
  -2.538497  -0.360528  0.000000
  0.000000  0.000000  0.000000


  -0.351520  -0.915542  0.000000
  -0.915542  -0.278496  0.000000
  0.000000  0.000000  0.000000


  -0.337318  -0.979744  0.000000
  -0.979744  -0.205081  0.000000
  0.000000  0.000000  0.000000


  3.075433  -2.434761  0.000000
  -2.434761  0.561677  0.000000
  0.000000  0.000000  0.000000


  4.682220  -3.380840  0.000000
  -3.380840  0.238583  0.000000
  0.000000  0.000000  0.000000


  4.664478  -3.335812  0.000000
  -3.335812  0.162283  0.000000
  0.000000  0.000000  0.000000


  3.108589  -2.521394  0.000000
  -2.521394  0.650428  0.000000
  0.000000  0.000000  0.000000


  4.735303  -3.170761  0.000000
  -3.170761  0.982520  0.000000
  0.000000  0.000000  0.000000


  6.284513  -4.123980  0.000000
  -4.123980  0.681718  0.000000
  0.000000  0.000000  0.000000


  4.751236  -3.218705  0.000000
  -3.218705  1.061626  0.000000
  0.000000  0.000000  0.000000


  4.662799  -3.475698  0.000000
  -3.475698  0.355007  0.000000
  0.000000  0.000000  0.000000


  3.093350  -2.576876  0.000000
  -2.576876  0.734904  0.000000
  0.000000  0.000000  0.000000


  3.028164  -2.804810  0.000000
  -2.804810  0.037554  0.000000
  0.000000  0.000000  0.000000


  4.658526  -3.515933  0.000000
  -3.515933  0.446255  0.000000
  0.000000  0.000000  0.000000


  6.214172  -4.199064  0.000000
  -4.199064  0.811528  0.000000
  0.000000  0.000000  0.000000


  3.058505  -2.731641  0.000000
  -2.731641  -0.072080  0.000000
  0.000000  0.000000  0.000000


  1.438848  -1.805471  0.000000
  -1.805471  0.261597  0.000000
  0.000000  0.000000  0.000000


  1.378281  -2.017967  0.000000
  -2.017967  -0.400249  0.000000
  0.000000  0.000000  0.000000


  -0.297388  -1.039806  0.000000
  -1.039806  -0.169615  0.000000
  0.000000  0.000000  0.000000


  -0.317601  -1.201193  0.000000
  -1.201193  -0.830525  0.000000
  0.000000  0.000000  0.000000


  -1.999946  -0.198826  0.000000
  -0.198826  -0.591146  0.000000
  0.000000  0.000000  0.000000


  -1.975980  -0.307130  0.000000
  -0.307130  -0.479230  0.000000
  0.000000  0.000000  0.000000


  -0.230980  -1.094648  0.000000
  -1.094648  -0.067238  0.000000
  0.000000  0.000000  0.000000


  1.371587  -1.938501  0.000000
  -1.938501  -0.501579  0.000000
  0.000000  0.000000  0.000000


  1.396976  -1.763781  0.000000
  -1.763781  0.207987  0.000000
  0.000000  0.000000  0.000000


  -0.396337  -1.193679  0.000000
  -1.193679  -0.898848  0.000000
  0.000000  0.000000  0.000000


  -2.063569  -0.170601  0.000000
  -0.170601  -0.622583  0.000000
  0.000000  0.000000  0.000000


  -0.440104  -1.159986  0.000000
  -1.159986  -0.942873  0.000000
  0.000000  0.000000  0.000000


  -2.126213  -0.140096  0.000000
  -0.140096  -0.655638  0.000000
  0.000000  0.000000  0.000000


  -2.119069  -0.375506  0.000000
  -0.375506  -1.292522  0.000000
  0.000000  0.000000  0.000000


  -0.464996  -1.138190  0.000000
  -1.138190  -0.970705  0.000000
  0.000000  0.000000  0.000000


  -2.185523  -0.349152  0.000000
  -0.349152  -1.324867  0.000000
  0.000000  0.000000  0.000000


  -2.075994  -0.426876  0.000000
  -0.426876  -1.238279  0.000000
  0.000000  0.000000  0.000000


  -1.944314  -0.416939  0.000000
  -0.416939  -1.235991  0.000000
  0.000000  0.000000  0.000000


  -0.224332  -1.244310  0.000000
  -1.244310  -0.820098  0.000000
  0.000000  0.000000  0.000000


  -1.864034  -0.355007  0.000000
  -0.355007  -0.418185  0.000000
  0.000000  0.000000  0.000000


  -1.848260  -0.490324  0.000000
  -0.490324  -1.157946  0.000000
  0.000000  0.000000  0.000000


  -0.133064  -1.291057  0.000000
  -1.291057  -0.748679  0.000000
  0.000000  0.000000  0.000000


  1.457396  -1.850876  0.000000
  -1.850876  0.346931  0.000000
  0.000000  0.000000  0.000000


  1.404126  -2.065874  0.000000
  -2.065874  -0.355910  0.000000
  0.000000  0.000000  0.000000


  -0.161010  -1.174299  0.000000
  -1.174299  0.047124  0.000000
  0.000000  0.000000  0.000000


  1.517787  -2.115171  0.000000
  -2.115171  -0.289889  0.000000
  0.000000  0.000000  0.000000


  -0.018142  -1.285914  0.000000
  -1.285914  0.117691  0.000000
  0.000000  0.000000  0.000000


  1.474639  -2.024802  0.000000
  -2.024802  0.531777  0.000000
  0.000000  0.000000  0.000000


  -1.727240  -0.460278  0.000000
  -0.460278  -0.330058  0.000000
  0.000000  0.000000  0.000000


  0.021228  -1.397513  0.000000
  -1.397513  -0.655845  0.000000
  0.000000  0.000000  0.000000


  -1.578453  -0.543562  0.000000
  -0.543562  -0.247134  0.000000
  0.000000  0.000000  0.000000


  -1.516708  -0.629277  0.000000
  -0.629277  -1.038155  0.000000
  0.000000  0.000000  0.000000


  0.159539  -1.470277  0.000000
  -1.470277  -0.570392  0.000000
  0.000000  0.000000  0.000000


  1.673979  -2.221417  0.000000
  -2.221417  -0.183992  0.000000
  0.000000  0.000000  0.000000


  -3.277506  0.344402  0.000000
  0.344402  -0.742315  0.000000
  0.000000  0.000000  0.000000


  -3.116987  0.251921  0.000000
  0.251921  -0.663218  0.000000
  0.000000  0.000000  0.000000


  4.701723  -3.315348  0.000000
  -3.315348  1.175758  0.000000
  0.000000  0.000000  0.000000


  6.244439  -4.277395  0.000000
  -4.277395  0.905527  0.000000
  0.000000  0.000000  0.000000


  4.735912  -3.397682  0.000000
  -3.397682  1.263190  0.000000
  0.000000  0.000000  0.000000


  6.274253  -4.087738  0.000000
  -4.087738  1.657774  0.000000
  0.000000  0.000000  0.000000


  4.647685  -3.639776  0.000000
  -3.639776  0.616021  0.000000
  0.000000  0.000000  0.000000


  3.120285  -2.653326  0.000000
  -2.653326  0.796548  0.000000
  0.000000  0.000000  0.000000


  3.104887  -2.809496  0.000000
  -2.809496  0.111674  0.000000
  0.000000  0.000000  0.000000


  6.177051  -4.450227  0.000000
  -4.450227  0.991231  0.000000
  0.000000  0.000000  0.000000


  -3.617955  0.494695  0.000000
  0.494695  -0.881114  0.000000
  0.000000  0.000000  0.000000


  -3.586587  0.387591  0.000000
  0.387591  -1.598342  0.000000
  0.000000  0.000000  0.000000


  -5.412279  1.392651  0.000000
  1.392651  -1.307828  0.000000
  0.000000  0.000000  0.000000


  -5.260678  1.303907  0.000000
  1.303907  -1.246116  0.000000
  0.000000  0.000000  0.000000


  -3.740099  0.423681  0.000000
  0.423681  -1.651884  0.000000
  0.000000  0.000000  0.000000


  -5.395918  1.265395  0.000000
  1.265395  -2.017538  0.000000
  0.000000  0.000000  0.000000


  -3.410049  0.342744  0.000000
  0.342744  -1.576255  0.000000
  0.000000  0.000000  0.000000


  -5.055311  1.230694  0.000000
  1.230694  -1.193602  0.000000
  0.000000  0.000000  0.000000


  7.937149  -5.052218  0.000000
  -5.052218  1.366021  0.000000
  0.000000  0.000000  0.000000


  -5.190884  1.237521  0.000000
  1.237521  -2.019227  0.000000
  0.000000  0.000000  0.000000


  4.773346  -3.059503  0.000000
  -3.059503  0.859556  0.000000
  0.000000  0.000000  0.000000


  0.103635  -1.384908  0.000000
  -1.384908  0.240038  0.000000
  0.000000  0.000000  0.000000


  1.795091  -2.271650  0.000000
  -2.271650  -0.058756  0.000000
  0.000000  0.000000  0.000000


  0.213644  -1.479084  0.000000
  -1.479084  0.490901  0.000000
  0.000000  0.000000  0.000000


  1.783663  -2.160759  0.000000
  -2.160759  0.584876  0.000000
  0.000000  0.000000  0.000000


  1.290696  -1.840469  0.000000
  -1.840469  -0.691962  0.000000
  0.000000  0.000000  0.000000


  -0.378698  -0.861806  0.000000
  -0.861806  -0.359075  0.000000
  0.000000  0.000000  0.000000


  -0.346553  -0.862512  0.000000
  -0.862512  -0.329136  0.000000
  0.000000  0.000000  0.000000


  1.301886  -1.854491  0.000000
  -1.854491  -0.640579  0.000000
  0.000000  0.000000  0.000000


  1.313665  -1.814304  0.000000
  -1.814304  -0.727671  0.000000
  0.000000  0.000000  0.000000


  -0.420292  -1.049588  0.000000
  -1.049588  -1.064894  0.000000
  0.000000  0.000000  0.000000


  1.441069  -1.527322  0.000000
  -1.527322  -0.084446  0.000000
  0.000000  0.000000  0.000000


  -0.349819  -0.827571  0.000000
  -0.827571  -0.421681  0.000000
  0.000000  0.000000  0.000000


  -2.168665  -0.142844  0.000000
  -0.142844  -0.708237  0.000000
  0.000000  0.000000  0.000000


  -2.217386  -0.329761  0.000000
  -0.329761  -1.338243  0.000000
  0.000000  0.000000  0.000000


  -3.998983  0.675860  0.000000
  0.675860  -1.061251  0.000000
  0.000000  0.000000  0.000000


  -3.992335  0.626290  0.000000
  0.626290  -1.027999  0.000000
  0.000000  0.000000  0.000000


  -4.021694  0.460469  0.000000
  0.460469  -1.669679  0.000000
  0.000000  0.000000  0.000000


  -5.863586  1.479406  0.000000
  1.479406  -1.380191  0.000000
  0.000000  0.000000  0.000000


  -5.771452  1.413855  0.000000
  1.413855  -1.334358  0.000000
  0.000000  0.000000  0.000000


  -2.281103  -0.364421  0.000000
  -0.364421  -1.349849  0.000000
  0.000000  0.000000  0.000000


  -4.103410  0.423751  0.000000
  0.423751  -1.669861  0.000000
  0.000000  0.000000  0.000000


  -5.879912  1.457254  0.000000
  1.457254  -1.381752  0.000000
  0.000000  0.000000  0.000000


  -5.939446  1.260909  0.000000
  1.260909  -1.992602  0.000000
  0.000000  0.000000  0.000000


  -3.925747  0.457878  0.000000
  0.457878  -1.682554  0.000000
  0.000000  0.000000  0.000000


  -5.676327  1.401591  0.000000
  1.401591  -1.313061  0.000000
  0.000000  0.000000  0.000000


  -3.904978  0.623400  0.000000
  0.623400  -0.996197  0.000000
  0.000000  0.000000  0.000000


  -5.645780  1.296745  0.000000
  1.296745  -2.025568  0.000000
  0.000000  0.000000  0.000000


  -3.808705  0.460250  0.000000
  0.460250  -1.670655  0.000000
  0.000000  0.000000  0.000000


  -5.562138  1.392857  0.000000
  1.392857  -1.314595  0.000000
  0.000000  0.000000  0.000000


  -3.817531  0.594544  0.000000
  0.594544  -0.984241  0.000000
  0.000000  0.000000  0.000000


  -5.561075  1.249208  0.000000
  1.249208  -1.967688  0.000000
  0.000000  0.000000  0.000000


  -7.391374  2.294482  0.000000
  2.294482  -1.751517  0.000000
  0.000000  0.000000  0.000000


  -7.401696  2.158409  0.000000
  2.158409  -2.338451  0.000000
  0.000000  0.000000  0.000000


  -9.302281  3.215361  0.000000
  3.215361  -2.097673  0.000000
  0.000000  0.000000  0.000000


  -9.164109  3.168400  0.000000
  3.168400  -2.070039  0.000000
  0.000000  0.000000  0.000000


  -7.252914  2.291226  0.000000
  2.291226  -1.717024  0.000000
  0.000000  0.000000  0.000000


  -7.563252  2.075430  0.000000
  2.075430  -2.297689  0.000000
  0.000000  0.000000  0.000000


  -9.334193  3.047422  0.000000
  3.047422  -2.695915  0.000000
  0.000000  0.000000  0.000000


  -9.102816  3.102972  0.000000
  3.102972  -2.769873  0.000000
  0.000000  0.000000  0.000000


  -7.229791  2.168347  0.000000
  2.168347  -2.415934  0.000000
  0.000000  0.000000  0.000000


  -8.949415  3.188285  0.000000
  3.188285  -2.107842  0.000000
  0.000000  0.000000  0.000000


  -8.919640  3.078252  0.000000
  3.078252  -2.771811  0.000000
  0.000000  0.000000  0.000000


  -7.037264  2.161253  0.000000
  2.161253  -2.421692  0.000000
  0.000000  0.000000  0.000000


  -4.114932  0.390152  0.000000
  0.390152  -1.656280  0.000000
  0.000000  0.000000  0.000000


  -7.483514  2.297090  0.000000
  2.297090  -1.708007  0.000000
  0.000000  0.000000  0.000000


  -5.771290  1.275411  0.000000
  1.275411  -2.041849  0.000000
  0.000000  0.000000  0.000000


  -7.682453  2.267225  0.000000
  2.267225  -1.653876  0.000000
  0.000000  0.000000  0.000000


  -10.626772  4.138079  0.000000
  4.138079  -2.538183  0.000000
  0.000000  0.000000  0.000000


  -2.175820  -0.104768  0.000000
  -0.104768  -0.711546  0.000000
  0.000000  0.000000  0.000000


  -0.435221  -1.070676  0.000000
  -1.070676  -1.101532  0.000000
  0.000000  0.000000  0.000000


  -2.192510  -0.133311  0.000000
  -0.133311  -0.721042  0.000000
  0.000000  0.000000  0.000000


  -0.428510  -1.032682  0.000000
  -1.032682  -1.145969  0.000000
  0.000000  0.000000  0.000000


  -2.262782  -0.352894  0.000000
  -0.352894  -1.400147  0.000000
  0.000000  0.000000  0.000000


  -4.050234  0.655448  0.000000
  0.655448  -1.066120  0.000000
  0.000000  0.000000  0.000000


  -2.314709  -0.378042  0.000000
  -0.378042  -1.386903  0.000000
  0.000000  0.000000  0.000000


  -4.115288  0.447772  0.000000
  0.447772  -1.713794  0.000000
  0.000000  0.000000  0.000000


  -2.173146  -0.082781  0.000000
  -0.082781  -0.778268  0.000000
  0.000000  0.000000  0.000000


  -0.392359  -1.069924  0.000000
  -1.069924  -1.148856  0.000000
  0.000000  0.000000  0.000000


  -0.234790  -0.757529  0.000000
  -0.757529  -0.551508  0.000000
  0.000000  0.000000  0.000000


  -2.114876  -0.118664  0.000000
  -0.118664  -0.789414  0.000000
  0.000000  0.000000  0.000000


  -3.990434  0.643587  0.000000
  0.643587  -1.098263  0.000000
  0.000000  0.000000  0.000000


  -5.954705  1.400236  0.000000
  1.400236  -1.378571  0.000000
  0.000000  0.000000  0.000000


  -6.010163  1.215147  0.000000
  1.215147  -1.959726  0.000000
  0.000000  0.000000  0.000000


  -7.904672  2.238401  0.000000
  2.238401  -1.671095  0.000000
  0.000000  0.000000  0.000000


  -7.848361  2.189703  0.000000
  2.189703  -1.628662  0.000000
  0.000000  0.000000  0.000000


  -2.230334  -0.391922  0.000000
  -0.391922  -1.423899  0.000000
  0.000000  0.000000  0.000000


  -4.006143  0.623886  0.000000
  0.623886  -1.089174  0.000000
  0.000000  0.000000  0.000000


  -2.220667  -0.425337  0.000000
  -0.425337  -1.405778  0.000000
  0.000000  0.000000  0.000000


  -4.128999  0.347741  0.000000
  0.347741  -1.690741  0.000000
  0.000000  0.000000  0.000000


  -6.091817  1.126981  0.000000
  1.126981  -1.924937  0.000000
  0.000000  0.000000  0.000000


  -8.018058  1.988290  0.000000
  1.988290  -2.217907  0.000000
  0.000000  0.000000  0.000000


  -5.944137  1.248173  0.000000
  1.248173  -2.014738  0.000000
  0.000000  0.000000  0.000000


  -7.766322  2.266963  0.000000
  2.266963  -1.700796  0.000000
  0.000000  0.000000  0.000000


  -7.839287  2.060655  0.000000
  2.060655  -2.258181  0.000000
  0.000000  0.000000  0.000000


  -9.608568  3.158981  0.000000
  3.158981  -2.055421  0.000000
  0.000000  0.000000  0.000000


  -9.641686  3.187189  0.000000
  3.187189  -2.048517  0.000000
  0.000000  0.000000  0.000000


  -5.963255  1.400593  0.000000
  1.400593  -1.348185  0.000000
  0.000000  0.000000  0.000000


  -4.122576  0.359449  0.000000
  0.359449  -1.701051  0.000000
  0.000000  0.000000  0.000000


  -5.997713  1.326276  0.000000
  1.326276  -1.316771  0.000000
  0.000000  0.000000  0.000000


  -6.037954  1.151791  0.000000
  1.151791  -1.972619  0.000000
  0.000000  0.000000  0.000000


  -0.309671  -1.073310  0.000000
  -1.073310  -1.179000  0.000000
  0.000000  0.000000  0.000000


  -7.906463  1.996139  0.000000
  1.996139  -2.246292  0.000000
  0.000000  0.000000  0.000000


  -9.823681  3.061621  0.000000
  3.061621  -1.956899  0.000000
  0.000000  0.000000  0.000000


  -9.840188  2.934537  0.000000
  2.934537  -2.556247  0.000000
  0.000000  0.000000  0.000000


  -11.938768  3.862764  0.000000
  3.862764  -2.167511  0.000000
  0.000000  0.000000  0.000000


  -11.730613  3.793614  0.000000
  3.793614  -2.142308  0.000000
  0.000000  0.000000  0.000000


  -0.334282  -0.783563  0.000000
  -0.783563  -0.487345  0.000000
  0.000000  0.000000  0.000000


  -5.986748  1.313323  0.000000
  1.313323  -1.336409  0.000000
  0.000000  0.000000  0.000000


  -9.702889  2.926437  0.000000
  2.926437  -2.619939  0.000000
  0.000000  0.000000  0.000000


  -11.575735  3.939074  0.000000
  3.939074  -2.235708  0.000000
  0.000000  0.000000  0.000000


  -11.579632  3.799174  0.000000
  3.799174  -2.840744  0.000000
  0.000000  0.000000  0.000000


  -9.658290  3.028730  0.000000
  3.028730  -2.691267  0.000000
  0.000000  0.000000  0.000000


  -11.447852  4.049317  0.000000
  4.049317  -2.337542  0.000000
  0.000000  0.000000  0.000000


  -11.487747  3.876016  0.000000
  3.876016  -2.904448  0.000000
  0.000000  0.000000  0.000000


  -9.446256  3.100159  0.000000
  3.100159  -2.734936  0.000000
  0.000000  0.000000  0.000000


  -11.274654  4.087947  0.000000
  4.087947  -2.448244  0.000000
  0.000000  0.000000  0.000000


  -9.490356  3.161033  0.000000
  3.161033  -2.060371  0.000000
  0.000000  0.000000  0.000000


  -11.267065  3.982319  0.000000
  3.982319  -2.990992  0.000000
  0.000000  0.000000  0.000000


  -13.282030  5.060313  0.000000
  5.060313  -2.760142  0.000000
  0.000000  0.000000  0.000000


  -13.109669  5.043190  0.000000
  5.043190  -2.756405  0.000000
  0.000000  0.000000  0.000000


  -13.313300  4.906965  0.000000
  4.906965  -3.295399  0.000000
  0.000000  0.000000  0.000000


  -13.434549  4.906116  0.000000
  4.906116  -2.624996  0.000000
  0.000000  0.000000  0.000000


  -13.407495  4.981380  0.000000
  4.981380  -2.702243  0.000000
  0.000000  0.000000  0.000000


  -13.489968  4.785956  0.000000
  4.785956  -3.163179  0.000000
  0.000000  0.000000  0.000000


  -15.470255  5.915465  0.000000
  5.915465  -2.956936  0.000000
  0.000000  0.000000  0.000000


  -15.361491  6.011798  0.000000
  6.011798  -3.046799  0.000000
  0.000000  0.000000  0.000000


  -15.400182  5.864192  0.000000
  5.864192  -3.513913  0.000000
  0.000000  0.000000  0.000000


  -13.021544  5.019066  0.000000
  5.019066  -3.430320  0.000000
  0.000000  0.000000  0.000000


  -15.165212  6.074210  0.000000
  6.074210  -3.084237  0.000000
  0.000000  0.000000  0.000000


  -17.312243  7.131894  0.000000
  7.131894  -3.420666  0.000000
  0.000000  0.000000  0.000000


  -11.055194  4.029617  0.000000
  4.029617  -3.126613  0.000000
  0.000000  0.000000  0.000000


  -12.820217  5.116351  0.000000
  5.116351  -2.856824  0.000000
  0.000000  0.000000  0.000000


  -12.787535  5.018109  0.000000
  5.018109  -3.469931  0.000000
  0.000000  0.000000  0.000000


  -10.815267  4.073930  0.000000
  4.073930  -3.146926  0.000000
  0.000000  0.000000  0.000000


  -12.581593  5.089047  0.000000
  5.089047  -2.887776  0.000000
  0.000000  0.000000  0.000000


  -10.876569  4.133785  0.000000
  4.133785  -2.512233  0.000000
  0.000000  0.000000  0.000000


  -12.479466  5.074032  0.000000
  5.074032  -3.587452  0.000000
  0.000000  0.000000  0.000000


  -10.549779  4.074934  0.000000
  4.074934  -3.242524  0.000000
  0.000000  0.000000  0.000000


  -12.294162  5.097606  0.000000
  5.097606  -2.942603  0.000000
  0.000000  0.000000  0.000000


  -12.186727  5.072221  0.000000
  5.072221  -3.637580  0.000000
  0.000000  0.000000  0.000000


  -10.246772  4.079970  0.000000
  4.079970  -3.282476  0.000000
  0.000000  0.000000  0.000000


  -17.484226  6.968608  0.000000
  6.968608  -3.277423  0.000000
  0.000000  0.000000  0.000000


  1.378710  -1.816406  0.000000
  -1.816406  -0.739550  0.000000
  0.000000  0.000000  0.000000


  1.525670  -1.516785  0.000000
  -1.516785  -0.145631  0.000000
  0.000000  0.000000  0.000000


  -11.692787  3.737288  0.000000
  3.737288  -2.836946  0.000000
  0.000000  0.000000  0.000000


  -13.699496  4.799018  0.000000
  4.799018  -2.480570  0.000000
  0.000000  0.000000  0.000000


  -11.980767  3.699037  0.000000
  3.699037  -2.752841  0.000000
  0.000000  0.000000  0.000000


  -13.706421  4.692756  0.000000
  4.692756  -3.041916  0.000000
  0.000000  0.000000  0.000000


  -13.987449  4.708042  0.000000
  4.708042  -2.373767  0.000000
  0.000000  0.000000  0.000000


  -12.140067  3.593862  0.000000
  3.593862  -2.656666  0.000000
  0.000000  0.000000  0.000000


  -13.974294  4.627476  0.000000
  4.627476  -2.963245  0.000000
  0.000000  0.000000  0.000000


  -15.977127  5.600298  0.000000
  5.600298  -2.630534  0.000000
  0.000000  0.000000  0.000000


  -15.911574  5.615492  0.000000
  5.615492  -3.105396  0.000000
  0.000000  0.000000  0.000000


  -15.689175  5.716919  0.000000
  5.716919  -2.845136  0.000000
  0.000000  0.000000  0.000000


  -15.641266  5.673978  0.000000
  5.673978  -3.381383  0.000000
  0.000000  0.000000  0.000000


  -13.616406  4.609180  0.000000
  4.609180  -3.055646  0.000000
  0.000000  0.000000  0.000000


  -17.664761  6.805836  0.000000
  6.805836  -3.127098  0.000000
  0.000000  0.000000  0.000000


  -17.680875  6.745361  0.000000
  6.745361  -3.201874  0.000000
  0.000000  0.000000  0.000000


  -18.245773  6.221808  0.000000
  6.221808  -3.206826  0.000000
  0.000000  0.000000  0.000000


  -17.356857  7.014248  0.000000
  7.014248  -3.683503  0.000000
  0.000000  0.000000  0.000000


  -18.271743  6.354341  0.000000
  6.354341  -2.652302  0.000000
  0.000000  0.000000  0.000000


  -11.992261  3.868255  0.000000
  3.868255  -2.178002  0.000000
  0.000000  0.000000  0.000000


  -14.095654  4.637595  0.000000
  4.637595  -2.342760  0.000000
  0.000000  0.000000  0.000000


  -16.294072  5.528426  0.000000
  5.528426  -2.536438  0.000000
  0.000000  0.000000  0.000000


  -15.585051  5.686075  0.000000
  5.686075  -3.412700  0.000000
  0.000000  0.000000  0.000000


  -16.289473  5.420623  0.000000
  5.420623  -3.197469  0.000000
  0.000000  0.000000  0.000000


  -18.482134  6.393217  0.000000
  6.393217  -2.753812  0.000000
  0.000000  0.000000  0.000000


  -12.179984  3.485109  0.000000
  3.485109  -2.595796  0.000000
  0.000000  0.000000  0.000000


  -16.442444  5.347126  0.000000
  5.347126  -3.108105  0.000000
  0.000000  0.000000  0.000000


  -18.281512  6.587269  0.000000
  6.587269  -3.304798  0.000000
  0.000000  0.000000  0.000000


  -2.049389  -0.099121  0.000000
  -0.099121  -0.821341  0.000000
  0.000000  0.000000  0.000000


  -0.241645  -1.104788  0.000000
  -1.104788  -1.184289  0.000000
  0.000000  0.000000  0.000000


  -0.042629  -0.745796  0.000000
  -0.745796  -0.608033  0.000000
  0.000000  0.000000  0.000000


  -1.958361  -0.132590  0.000000
  -0.132590  -0.833224  0.000000
  0.000000  0.000000  0.000000


  1.668133  -1.771288  0.000000
  -1.771288  -0.894269  0.000000
  0.000000  0.000000  0.000000


  1.732427  -1.777729  0.000000
  -1.777729  -0.922173  0.000000
  0.000000  0.000000  0.000000


  -2.091771  -0.425056  0.000000
  -0.425056  -1.448509  0.000000
  0.000000  0.000000  0.000000


  -10.017387  2.817986  0.000000
  2.817986  -2.442271  0.000000
  0.000000  0.000000  0.000000


  -9.964278  2.988305  0.000000
  2.988305  -1.924516  0.000000
  0.000000  0.000000  0.000000


  -8.019283  1.946011  0.000000
  1.946011  -2.182014  0.000000
  0.000000  0.000000  0.000000


  -7.945006  2.145470  0.000000
  2.145470  -1.647899  0.000000
  0.000000  0.000000  0.000000


  -9.976514  2.949368  0.000000
  2.949368  -1.873643  0.000000
  0.000000  0.000000  0.000000


  -8.090412  1.826080  0.000000
  1.826080  -2.145858  0.000000
  0.000000  0.000000  0.000000


  -10.105113  2.684946  0.000000
  2.684946  -2.395675  0.000000
  0.000000  0.000000  0.000000


  -12.045070  3.752400  0.000000
  3.752400  -2.090804  0.000000
  0.000000  0.000000  0.000000


  -10.139674  2.543283  0.000000
  2.543283  -2.315742  0.000000
  0.000000  0.000000  0.000000


  -9.942445  2.873065  0.000000
  2.873065  -1.834538  0.000000
  0.000000  0.000000  0.000000


  -8.060586  1.718731  0.000000
  1.718731  -2.089592  0.000000
  0.000000  0.000000  0.000000


  -7.904387  2.018742  0.000000
  2.018742  -1.534790  0.000000
  0.000000  0.000000  0.000000


  -6.078209  1.074237  0.000000
  1.074237  -1.961397  0.000000
  0.000000  0.000000  0.000000


  -6.049080  0.945843  0.000000
  0.945843  -1.885799  0.000000
  0.000000  0.000000  0.000000


  -7.960925  2.099117  0.000000
  2.099117  -1.582073  0.000000
  0.000000  0.000000  0.000000


  -5.843406  1.289459  0.000000
  1.289459  -1.367444  0.000000
  0.000000  0.000000  0.000000


  -7.841103  1.905155  0.000000
  1.905155  -1.511386  0.000000
  0.000000  0.000000  0.000000


  -4.018199  0.191165  0.000000
  0.191165  -1.648078  0.000000
  0.000000  0.000000  0.000000


  -3.818950  0.538851  0.000000
  0.538851  -1.093045  0.000000
  0.000000  0.000000  0.000000


  -1.969679  -0.498925  0.000000
  -0.498925  -1.447357  0.000000
  0.000000  0.000000  0.000000


  -1.750076  -0.125119  0.000000
  -0.125119  -0.899836  0.000000
  0.000000  0.000000  0.000000


  -3.702502  0.465142  0.000000
  0.465142  -1.078125  0.000000
  0.000000  0.000000  0.000000


  -5.750101  1.203241  0.000000
  1.203241  -1.320259  0.000000
  0.000000  0.000000  0.000000


  -9.867457  2.753909  0.000000
  2.753909  -1.785731  0.000000
  0.000000  0.000000  0.000000


  -4.104778  0.281572  0.000000
  0.281572  -1.660190  0.000000
  0.000000  0.000000  0.000000


  -3.957351  0.577518  0.000000
  0.577518  -1.108075  0.000000
  0.000000  0.000000  0.000000


  -5.927745  0.870682  0.000000
  0.870682  -1.865081  0.000000
  0.000000  0.000000  0.000000


  -7.971697  1.623105  0.000000
  1.623105  -2.074011  0.000000
  0.000000  0.000000  0.000000


  -9.892641  2.649055  0.000000
  2.649055  -1.722561  0.000000
  0.000000  0.000000  0.000000


  -7.971956  1.500673  0.000000
  1.500673  -2.000031  0.000000
  0.000000  0.000000  0.000000


  -10.028193  2.369882  0.000000
  2.369882  -2.243164  0.000000
  0.000000  0.000000  0.000000


  -0.121960  -1.145440  0.000000
  -1.145440  -1.154346  0.000000
  0.000000  0.000000  0.000000


  0.085799  -0.783544  0.000000
  -0.783544  -0.625528  0.000000
  0.000000  0.000000  0.000000


  1.914320  -1.739906  0.000000
  -1.739906  -0.992387  0.000000
  0.000000  0.000000  0.000000


  0.039283  -1.198099  0.000000
  -1.198099  -1.182792  0.000000
  0.000000  0.000000  0.000000


  -3.873419  0.127961  0.000000
  0.127961  -1.649685  0.000000
  0.000000  0.000000  0.000000


  -5.667052  1.127131  0.000000
  1.127131  -1.296023  0.000000
  0.000000  0.000000  0.000000


  -3.788108  0.058190  0.000000
  0.058190  -1.629457  0.000000
  0.000000  0.000000  0.000000


  -5.838990  0.792002  0.000000
  0.792002  -1.855262  0.000000
  0.000000  0.000000  0.000000


  -7.714960  1.756692  0.000000
  1.756692  -1.461539  0.000000
  0.000000  0.000000  0.000000


  -7.754672  1.861682  0.000000
  1.861682  -1.510920  0.000000
  0.000000  0.000000  0.000000


  -5.763475  0.701190  0.000000
  0.701190  -1.821731  0.000000
  0.000000  0.000000  0.000000


  -7.835368  1.484062  0.000000
  1.484062  -2.036163  0.000000
  0.000000  0.000000  0.000000


  0.271655  -0.802704  0.000000
  -0.802704  -0.612072  0.000000
  0.000000  0.000000  0.000000


  2.080916  -1.794227  0.000000
  -1.794227  -0.997338  0.000000
  0.000000  0.000000  0.000000


  2.323677  -1.386239  0.000000
  -1.386239  -0.428854  0.000000
  0.000000  0.000000  0.000000


  0.437408  -0.831271  0.000000
  -0.831271  -0.628415  0.000000
  0.000000  0.000000  0.000000


  3.811197  -2.408703  0.000000
  -2.408703  -0.697607  0.000000
  0.000000  0.000000  0.000000


  4.100624  -2.428341  0.000000
  -2.428341  -0.736197  0.000000
  0.000000  0.000000  0.000000


  2.280974  -1.799047  0.000000
  -1.799047  -1.023517  0.000000
  0.000000  0.000000  0.000000


  -1.820838  -0.540076  0.000000
  -0.540076  -1.450102  0.000000
  0.000000  0.000000  0.000000


  2.094589  -1.384972  0.000000
  -1.384972  -0.370169  0.000000
  0.000000  0.000000  0.000000


  3.657360  -2.409142  0.000000
  -2.409142  -0.679350  0.000000
  0.000000  0.000000  0.000000


  1.950282  -1.395155  0.000000
  -1.395155  -0.346243  0.000000
  0.000000  0.000000  0.000000


  3.593750  -2.404747  0.000000
  -2.404747  -0.646868  0.000000
  0.000000  0.000000  0.000000


  3.877069  -2.013176  0.000000
  -2.013176  -0.093850  0.000000
  0.000000  0.000000  0.000000


  0.235631  -1.212494  0.000000
  -1.212494  -1.210380  0.000000
  0.000000  0.000000  0.000000


  -1.423770  -0.177137  0.000000
  -0.177137  -0.910119  0.000000
  0.000000  0.000000  0.000000


  0.390297  -1.261219  0.000000
  -1.261219  -1.207928  0.000000
  0.000000  0.000000  0.000000


  -1.678224  -0.598053  0.000000
  -0.598053  -1.445108  0.000000
  0.000000  0.000000  0.000000


  -3.566581  0.441201  0.000000
  0.441201  -1.085749  0.000000
  0.000000  0.000000  0.000000


  -11.973387  3.622373  0.000000
  3.622373  -2.041827  0.000000
  0.000000  0.000000  0.000000


  -12.036154  3.452965  0.000000
  3.452965  -1.960699  0.000000
  0.000000  0.000000  0.000000


  -12.154269  3.214274  0.000000
  3.214274  -2.397709  0.000000
  0.000000  0.000000  0.000000


  -10.069043  2.413927  0.000000
  2.413927  -2.247311  0.000000
  0.000000  0.000000  0.000000


  -14.232523  4.224227  0.000000
  4.224227  -2.075955  0.000000
  0.000000  0.000000  0.000000


  -14.195315  4.276891  0.000000
  4.276891  -2.098375  0.000000
  0.000000  0.000000  0.000000


  -12.204039  2.993480  0.000000
  2.993480  -2.298056  0.000000
  0.000000  0.000000  0.000000


  -14.369727  3.956863  0.000000
  3.956863  -2.554097  0.000000
  0.000000  0.000000  0.000000


  -14.189507  4.184081  0.000000
  4.184081  -2.661232  0.000000
  0.000000  0.000000  0.000000


  -12.121162  3.344757  0.000000
  3.344757  -2.535248  0.000000
  0.000000  0.000000  0.000000


  -14.160049  4.522169  0.000000
  4.522169  -2.288067  0.000000
  0.000000  0.000000  0.000000


  -14.271212  4.302129  0.000000
  4.302129  -2.721944  0.000000
  0.000000  0.000000  0.000000


  -5.555611  1.071166  0.000000
  1.071166  -1.298612  0.000000
  0.000000  0.000000  0.000000


  -9.843185  2.494288  0.000000
  2.494288  -1.696660  0.000000
  0.000000  0.000000  0.000000


  -10.007895  2.190340  0.000000
  2.190340  -2.149761  0.000000
  0.000000  0.000000  0.000000


  -11.903082  3.220850  0.000000
  3.220850  -1.837096  0.000000
  0.000000  0.000000  0.000000


  -11.994110  3.335548  0.000000
  3.335548  -1.871392  0.000000
  0.000000  0.000000  0.000000


  -10.005736  2.016226  0.000000
  2.016226  -2.072150  0.000000
  0.000000  0.000000  0.000000


  -12.094086  2.874670  0.000000
  2.874670  -2.341605  0.000000
  0.000000  0.000000  0.000000


  -9.735243  2.419838  0.000000
  2.419838  -1.622597  0.000000
  0.000000  0.000000  0.000000


  -7.751253  1.300498  0.000000
  1.300498  -1.966073  0.000000
  0.000000  0.000000  0.000000


  -7.526725  1.668967  0.000000
  1.668967  -1.458763  0.000000
  0.000000  0.000000  0.000000


  -9.579939  2.246467  0.000000
  2.246467  -1.569162  0.000000
  0.000000  0.000000  0.000000


  -5.578911  0.591532  0.000000
  0.591532  -1.802697  0.000000
  0.000000  0.000000  0.000000


  -5.319105  1.006104  0.000000
  1.006104  -1.311671  0.000000
  0.000000  0.000000  0.000000


  -7.407374  1.549192  0.000000
  1.549192  -1.407664  0.000000
  0.000000  0.000000  0.000000


  -11.717722  3.076030  0.000000
  3.076030  -1.801815  0.000000
  0.000000  0.000000  0.000000


  -9.783473  1.870092  0.000000
  1.870092  -2.066611  0.000000
  0.000000  0.000000  0.000000


  -11.675289  2.925447  0.000000
  2.925447  -1.714740  0.000000
  0.000000  0.000000  0.000000


  -9.721972  1.712973  0.000000
  1.712973  -1.966992  0.000000
  0.000000  0.000000  0.000000


  -11.892150  2.549286  0.000000
  2.549286  -2.145177  0.000000
  0.000000  0.000000  0.000000


  -7.583841  1.204707  0.000000
  1.204707  -1.954245  0.000000
  0.000000  0.000000  0.000000


  -9.396689  2.175721  0.000000
  2.175721  -1.552138  0.000000
  0.000000  0.000000  0.000000


  -7.415663  1.016393  0.000000
  1.016393  -1.863986  0.000000
  0.000000  0.000000  0.000000


  -7.053378  1.510641  0.000000
  1.510641  -1.479354  0.000000
  0.000000  0.000000  0.000000


  -9.178729  1.993573  0.000000
  1.993573  -1.494251  0.000000
  0.000000  0.000000  0.000000


  -11.392729  2.754543  0.000000
  2.754543  -1.678849  0.000000
  0.000000  0.000000  0.000000


  -5.420983  0.475477  0.000000
  0.475477  -1.703872  0.000000
  0.000000  0.000000  0.000000


  -5.126529  0.913119  0.000000
  0.913119  -1.323427  0.000000
  0.000000  0.000000  0.000000


  -3.431451  -0.115471  0.000000
  -0.115471  -1.564606  0.000000
  0.000000  0.000000  0.000000


  -3.162568  -0.167546  0.000000
  -0.167546  -1.608397  0.000000
  0.000000  0.000000  0.000000


  -3.135098  0.334013  0.000000
  0.334013  -1.127267  0.000000
  0.000000  0.000000  0.000000


  -1.471609  -0.665249  0.000000
  -0.665249  -1.387211  0.000000
  0.000000  0.000000  0.000000


  -3.396005  0.369075  0.000000
  0.369075  -1.090947  0.000000
  0.000000  0.000000  0.000000


  -1.217273  -0.262598  0.000000
  -0.262598  -0.928611  0.000000
  0.000000  0.000000  0.000000


  -3.626122  -0.020895  0.000000
  -0.020895  -1.594247  0.000000
  0.000000  0.000000  0.000000


  0.695788  -1.234580  0.000000
  -1.234580  -1.287815  0.000000
  0.000000  0.000000  0.000000


  -1.247526  -0.735028  0.000000
  -0.735028  -1.433346  0.000000
  0.000000  0.000000  0.000000


  0.873869  -0.878639  0.000000
  -0.878639  -0.667676  0.000000
  0.000000  0.000000  0.000000


  -1.001483  -0.314226  0.000000
  -0.314226  -0.867208  0.000000
  0.000000  0.000000  0.000000


  0.893064  -1.296728  0.000000
  -1.296728  -1.284539  0.000000
  0.000000  0.000000  0.000000


  1.155537  -0.857207  0.000000
  -0.857207  -0.729406  0.000000
  0.000000  0.000000  0.000000


  -0.781560  -0.366404  0.000000
  -0.366404  -0.880503  0.000000
  0.000000  0.000000  0.000000


  -7.173883  0.894078  0.000000
  0.894078  -1.839841  0.000000
  0.000000  0.000000  0.000000


  -2.907142  0.263650  0.000000
  0.263650  -1.092908  0.000000
  0.000000  0.000000  0.000000


  -4.934499  0.794162  0.000000
  0.794162  -1.225844  0.000000
  0.000000  0.000000  0.000000


  -0.996299  -0.775115  0.000000
  -0.775115  -1.455696  0.000000
  0.000000  0.000000  0.000000


  -2.726348  0.204276  0.000000
  0.204276  -1.076045  0.000000
  0.000000  0.000000  0.000000


  -0.813189  -0.835273  0.000000
  -0.835273  -1.444679  0.000000
  0.000000  0.000000  0.000000


  -2.968787  -0.230834  0.000000
  -0.230834  -1.613630  0.000000
  0.000000  0.000000  0.000000


  -4.715283  0.734447  0.000000
  0.734447  -1.234457  0.000000
  0.000000  0.000000  0.000000


  -2.751165  -0.311083  0.000000
  -0.311083  -1.610768  0.000000
  0.000000  0.000000  0.000000


  -5.011136  0.239662  0.000000
  0.239662  -1.718851  0.000000
  0.000000  0.000000  0.000000


  -6.671525  1.269315  0.000000
  1.269315  -1.360882  0.000000
  0.000000  0.000000  0.000000


  -6.853960  1.393145  0.000000
  1.393145  -1.399651  0.000000
  0.000000  0.000000  0.000000


  -4.785773  0.132806  0.000000
  0.132806  -1.668698  0.000000
  0.000000  0.000000  0.000000


  -6.931679  0.816092  0.000000
  0.816092  -1.837198  0.000000
  0.000000  0.000000  0.000000


  -5.191380  0.349684  0.000000
  0.349684  -1.740955  0.000000
  0.000000  0.000000  0.000000


  -4.393563  0.678085  0.000000
  0.678085  -1.238240  0.000000
  0.000000  0.000000  0.000000


  -2.445468  -0.427241  0.000000
  -0.427241  -1.580529  0.000000
  0.000000  0.000000  0.000000


  -2.059894  0.120812  0.000000
  0.120812  -1.138911  0.000000
  0.000000  0.000000  0.000000


  -4.048486  0.554403  0.000000
  0.554403  -1.215431  0.000000
  0.000000  0.000000  0.000000


  -6.331762  1.174888  0.000000
  1.174888  -1.371534  0.000000
  0.000000  0.000000  0.000000


  -8.826437  1.756414  0.000000
  1.756414  -1.438861  0.000000
  0.000000  0.000000  0.000000


  -9.029044  1.866588  0.000000
  1.866588  -1.482236  0.000000
  0.000000  0.000000  0.000000


  -9.256156  1.474950  0.000000
  1.474950  -1.928137  0.000000
  0.000000  0.000000  0.000000


  -11.150830  2.448366  0.000000
  2.448366  -1.569537  0.000000
  0.000000  0.000000  0.000000


  -11.340158  2.555649  0.000000
  2.555649  -1.623206  0.000000
  0.000000  0.000000  0.000000


  -11.520630  2.216282  0.000000
  2.216282  -2.050754  0.000000
  0.000000  0.000000  0.000000


  -9.435324  1.561752  0.000000
  1.561752  -1.951099  0.000000
  0.000000  0.000000  0.000000


  -13.552970  3.155620  0.000000
  3.155620  -1.665752  0.000000
  0.000000  0.000000  0.000000


  -13.662571  3.176148  0.000000
  3.176148  -1.633828  0.000000
  0.000000  0.000000  0.000000


  -0.188788  -1.003833  0.000000
  -1.003833  -1.413741  0.000000
  0.000000  0.000000  0.000000


  -11.431070  1.998663  0.000000
  1.998663  -1.990111  0.000000
  0.000000  0.000000  0.000000


  -13.809844  2.727500  0.000000
  2.727500  -2.064062  0.000000
  0.000000  0.000000  0.000000


  -11.652943  2.348355  0.000000
  2.348355  -2.135869  0.000000
  0.000000  0.000000  0.000000


  -13.782414  3.463600  0.000000
  3.463600  -1.781628  0.000000
  0.000000  0.000000  0.000000


  -14.117746  3.025429  0.000000
  3.025429  -2.113439  0.000000
  0.000000  0.000000  0.000000


  -15.674855  4.149809  0.000000
  4.149809  -1.958761  0.000000
  0.000000  0.000000  0.000000


  -16.100269  4.301637  0.000000
  4.301637  -1.932488  0.000000
  0.000000  0.000000  0.000000


  -13.847659  2.810509  0.000000
  2.810509  -2.090127  0.000000
  0.000000  0.000000  0.000000


  -15.922233  3.845458  0.000000
  3.845458  -1.760491  0.000000
  0.000000  0.000000  0.000000


  -15.972831  3.686482  0.000000
  3.686482  -2.188014  0.000000
  0.000000  0.000000  0.000000


  -18.426338  4.374228  0.000000
  4.374228  -1.664540  0.000000
  0.000000  0.000000  0.000000


  -18.134916  4.298750  0.000000
  4.298750  -1.653056  0.000000
  0.000000  0.000000  0.000000


  -16.072329  3.392000  0.000000
  3.392000  -2.153935  0.000000
  0.000000  0.000000  0.000000


  -18.473174  4.209511  0.000000
  4.209511  -2.240713  0.000000
  0.000000  0.000000  0.000000


  -18.072643  4.397323  0.000000
  4.397323  -2.261466  0.000000
  0.000000  0.000000  0.000000


  -15.986209  3.734082  0.000000
  3.734082  -2.350630  0.000000
  0.000000  0.000000  0.000000


  -18.165327  4.705665  0.000000
  4.705665  -1.807770  0.000000
  0.000000  0.000000  0.000000


  -18.307735  4.435656  0.000000
  4.435656  -2.309345  0.000000
  0.000000  0.000000  0.000000


  -16.259303  3.996516  0.000000
  3.996516  -2.499549  0.000000
  0.000000  0.000000  0.000000


  -18.259606  5.013224  0.000000
  5.013224  -1.927915  0.000000
  0.000000  0.000000  0.000000


  -20.075095  5.587363  0.000000
  5.587363  -2.148961  0.000000
  0.000000  0.000000  0.000000


  -20.954183  4.754461  0.000000
  4.754461  -2.010974  0.000000
  0.000000  0.000000  0.000000


  -20.371873  5.841423  0.000000
  5.841423  -2.358955  0.000000
  0.000000  0.000000  0.000000


  -18.649887  4.556614  0.000000
  4.556614  -2.212160  0.000000
  0.000000  0.000000  0.000000


  -16.253925  4.300624  0.000000
  4.300624  -2.426680  0.000000
  0.000000  0.000000  0.000000


  -20.537763  5.658472  0.000000
  5.658472  -2.574037  0.000000
  0.000000  0.000000  0.000000


  -20.340384  6.363307  0.000000
  6.363307  -2.771773  0.000000
  0.000000  0.000000  0.000000


  -18.704810  5.527915  0.000000
  5.527915  -2.257378  0.000000
  0.000000  0.000000  0.000000


  -16.327615  4.235663  0.000000
  4.235663  -1.808050  0.000000
  0.000000  0.000000  0.000000


  -20.790742  5.357630  0.000000
  5.357630  -2.192069  0.000000
  0.000000  0.000000  0.000000


  -23.080177  6.659317  0.000000
  6.659317  -2.267701  0.000000
  0.000000  0.000000  0.000000


  -19.150273  5.107887  0.000000
  5.107887  -2.352957  0.000000
  0.000000  0.000000  0.000000


  -16.310422  4.484259  0.000000
  4.484259  -2.564978  0.000000
  0.000000  0.000000  0.000000


  -14.129386  3.365292  0.000000
  3.365292  -2.181862  0.000000
  0.000000  0.000000  0.000000


  -13.947590  3.674209  0.000000
  3.674209  -1.949134  0.000000
  0.000000  0.000000  0.000000


  -12.132082  2.533712  0.000000
  2.533712  -2.083533  0.000000
  0.000000  0.000000  0.000000


  -14.144593  3.980583  0.000000
  3.980583  -1.995862  0.000000
  0.000000  0.000000  0.000000


  -14.275567  3.701795  0.000000
  3.701795  -2.568450  0.000000
  0.000000  0.000000  0.000000


  -16.251106  4.679349  0.000000
  4.679349  -1.923848  0.000000
  0.000000  0.000000  0.000000


  -15.896574  4.933749  0.000000
  4.933749  -2.242099  0.000000
  0.000000  0.000000  0.000000


  -14.348808  3.407730  0.000000
  3.407730  -2.411391  0.000000
  0.000000  0.000000  0.000000


  2.996697  -1.877159  0.000000
  -1.877159  -1.072717  0.000000
  0.000000  0.000000  0.000000


  -4.388302  0.013224  0.000000
  0.013224  -1.670136  0.000000
  0.000000  0.000000  0.000000


  -6.019231  1.045047  0.000000
  1.045047  -1.331858  0.000000
  0.000000  0.000000  0.000000


  -4.078797  -0.106237  0.000000
  -0.106237  -1.634682  0.000000
  0.000000  0.000000  0.000000


  -6.361028  0.509948  0.000000
  0.509948  -1.773554  0.000000
  0.000000  0.000000  0.000000


  -13.924594  3.978218  0.000000
  3.978218  -1.959115  0.000000
  0.000000  0.000000  0.000000


  2.748350  -1.844436  0.000000
  -1.844436  -1.036402  0.000000
  0.000000  0.000000  0.000000


  3.001603  -1.410835  0.000000
  -1.410835  -0.496426  0.000000
  0.000000  0.000000  0.000000


  4.569896  -2.403096  0.000000
  -2.403096  -0.815194  0.000000
  0.000000  0.000000  0.000000


  4.846385  -2.356477  0.000000
  -2.356477  -0.883212  0.000000
  0.000000  0.000000  0.000000


  -2.078793  -0.514389  0.000000
  -0.514389  -1.576558  0.000000
  0.000000  0.000000  0.000000


  1.138992  -1.321053  0.000000
  -1.321053  -1.304184  0.000000
  0.000000  0.000000  0.000000


  -0.525814  -0.914658  0.000000
  -0.914658  -1.404044  0.000000
  0.000000  0.000000  0.000000


  -0.175272  -0.391198  0.000000
  -0.391198  -0.972147  0.000000
  0.000000  0.000000  0.000000


  1.367067  -1.382679  0.000000
  -1.382679  -1.248277  0.000000
  0.000000  0.000000  0.000000


  -0.534931  -0.373473  0.000000
  -0.373473  -0.903162  0.000000
  0.000000  0.000000  0.000000


  1.713851  -0.874455  0.000000
  -0.874455  -0.812594  0.000000
  0.000000  0.000000  0.000000


  3.261450  -1.892143  0.000000
  -1.892143  -1.049522  0.000000
  0.000000  0.000000  0.000000


  3.560247  -1.900522  0.000000
  -1.900522  -1.119405  0.000000
  0.000000  0.000000  0.000000


  3.539570  -1.425040  0.000000
  -1.425040  -0.554999  0.000000
  0.000000  0.000000  0.000000


  1.713598  -1.423080  0.000000
  -1.423080  -1.298996  0.000000
  0.000000  0.000000  0.000000


  5.105661  -2.381834  0.000000
  -2.381834  -0.878907  0.000000
  0.000000  0.000000  0.000000


  3.275200  -1.411754  0.000000
  -1.411754  -0.500938  0.000000
  0.000000  0.000000  0.000000


  5.399122  -1.908002  0.000000
  -1.908002  -0.339458  0.000000
  0.000000  0.000000  0.000000


  5.425189  -2.345148  0.000000
  -2.345148  -0.956100  0.000000
  0.000000  0.000000  0.000000


  6.847988  -2.919562  0.000000
  -2.919562  -0.629753  0.000000
  0.000000  0.000000  0.000000


  7.197033  -2.883610  0.000000
  -2.883610  -0.694211  0.000000
  0.000000  0.000000  0.000000


  3.845391  -1.424530  0.000000
  -1.424530  -0.536749  0.000000
  0.000000  0.000000  0.000000


  5.705017  -2.361143  0.000000
  -2.361143  -0.969445  0.000000
  0.000000  0.000000  0.000000


  6.013826  -1.853518  0.000000
  -1.853518  -0.398087  0.000000
  0.000000  0.000000  0.000000


  4.151753  -1.434570  0.000000
  -1.434570  -0.557953  0.000000
  0.000000  0.000000  0.000000


  2.030227  -0.910964  0.000000
  -0.910964  -0.763839  0.000000
  0.000000  0.000000  0.000000


  3.895885  -1.909855  0.000000
  -1.909855  -1.152230  0.000000
  0.000000  0.000000  0.000000


  2.320634  -0.942280  0.000000
  -0.942280  -0.751966  0.000000
  0.000000  0.000000  0.000000


  4.180287  -1.907878  0.000000
  -1.907878  -1.171377  0.000000
  0.000000  0.000000  0.000000


  2.044737  -1.447044  0.000000
  -1.447044  -1.339849  0.000000
  0.000000  0.000000  0.000000


  0.451295  -0.497502  0.000000
  -0.497502  -0.914131  0.000000
  0.000000  0.000000  0.000000


  0.205345  -0.434605  0.000000
  -0.434605  -0.936486  0.000000
  0.000000  0.000000  0.000000


  2.323451  -1.469094  0.000000
  -1.469094  -1.338344  0.000000
  0.000000  0.000000  0.000000


  0.172827  -1.024611  0.000000
  -1.024611  -1.445757  0.000000
  0.000000  0.000000  0.000000


  -1.375868  0.000680  0.000000
  0.000680  -1.116980  0.000000
  0.000000  0.000000  0.000000


  0.444612  -1.111601  0.000000
  -1.111601  -1.417999  0.000000
  0.000000  0.000000  0.000000


  -1.744215  -0.586129  0.000000
  -0.586129  -1.583335  0.000000
  0.000000  0.000000  0.000000


  -3.325848  0.392607  0.000000
  0.392607  -1.198915  0.000000
  0.000000  0.000000  0.000000


  -3.657085  0.483636  0.000000
  0.483636  -1.216421  0.000000
  0.000000  0.000000  0.000000


  -1.382104  -0.688779  0.000000
  -0.688779  -1.536485  0.000000
  0.000000  0.000000  0.000000


  -3.631998  -0.134001  0.000000
  -0.134001  -1.681072  0.000000
  0.000000  0.000000  0.000000


  2.663011  -0.925893  0.000000
  -0.925893  -0.799893  0.000000
  0.000000  0.000000  0.000000


  4.598933  -1.948102  0.000000
  -1.948102  -1.195484  0.000000
  0.000000  0.000000  0.000000


  0.896597  -0.498888  0.000000
  -0.498888  -0.966596  0.000000
  0.000000  0.000000  0.000000


  2.728005  -1.520535  0.000000
  -1.520535  -1.358295  0.000000
  0.000000  0.000000  0.000000


  3.096034  -0.980940  0.000000
  -0.980940  -0.825891  0.000000
  0.000000  0.000000  0.000000


  1.318527  -0.611844  0.000000
  -0.611844  -1.020941  0.000000
  0.000000  0.000000  0.000000


  4.927311  -2.126913  0.000000
  -2.126913  -0.826401  0.000000
  0.000000  0.000000  0.000000


  -5.388452  0.802738  0.000000
  0.802738  -1.265846  0.000000
  0.000000  0.000000  0.000000


  3.416541  -1.710828  0.000000
  -1.710828  -1.504304  0.000000
  0.000000  0.000000  0.000000


  -0.950437  -0.066358  0.000000
  -0.066358  -1.139326  0.000000
  0.000000  0.000000  0.000000


  4.832378  -1.490507  0.000000
  -1.490507  -0.393582  0.000000
  0.000000  0.000000  0.000000


  -2.926177  0.347398  0.000000
  0.347398  -1.173783  0.000000
  0.000000  0.000000  0.000000


  -5.705327  0.896646  0.000000
  0.896646  -1.334972  0.000000
  0.000000  0.000000  0.000000


  -6.030139  0.390404  0.000000
  0.390404  -1.726741  0.000000
  0.000000  0.000000  0.000000


  -7.706843  1.389334  0.000000
  1.389334  -1.413408  0.000000
  0.000000  0.000000  0.000000


  -8.134409  1.475305  0.000000
  1.475305  -1.421430  0.000000
  0.000000  0.000000  0.000000


  -8.469644  0.958778  0.000000
  0.958778  -1.803218  0.000000
  0.000000  0.000000  0.000000


  -10.209704  1.959716  0.000000
  1.959716  -1.466588  0.000000
  0.000000  0.000000  0.000000


  -10.590288  2.063069  0.000000
  2.063069  -1.450591  0.000000
  0.000000  0.000000  0.000000


  -5.727971  0.233621  0.000000
  0.233621  -1.743648  0.000000
  0.000000  0.000000  0.000000


  -7.373944  1.246943  0.000000
  1.246943  -1.366181  0.000000
  0.000000  0.000000  0.000000


  -5.373303  0.104024  0.000000
  0.104024  -1.704771  0.000000
  0.000000  0.000000  0.000000


  -7.727738  0.671178  0.000000
  0.671178  -1.788663  0.000000
  0.000000  0.000000  0.000000


  -8.143567  0.768768  0.000000
  0.768768  -1.769392  0.000000
  0.000000  0.000000  0.000000


  -4.934082  0.725604  0.000000
  0.725604  -1.296257  0.000000
  0.000000  0.000000  0.000000


  -2.845686  -0.343322  0.000000
  -0.343322  -1.695836  0.000000
  0.000000  0.000000  0.000000


  -2.463813  0.260730  0.000000
  0.260730  -1.214852  0.000000
  0.000000  0.000000  0.000000


  -4.515043  0.583317  0.000000
  0.583317  -1.288073  0.000000
  0.000000  0.000000  0.000000


  -9.518984  1.616017  0.000000
  1.616017  -1.387423  0.000000
  0.000000  0.000000  0.000000


  -9.880925  1.766134  0.000000
  1.766134  -1.444419  0.000000
  0.000000  0.000000  0.000000


  -10.238538  1.219555  0.000000
  1.219555  -1.797055  0.000000
  0.000000  0.000000  0.000000


  -11.980780  2.207337  0.000000
  2.207337  -1.462363  0.000000
  0.000000  0.000000  0.000000


  -12.418460  2.332080  0.000000
  2.332080  -1.436889  0.000000
  0.000000  0.000000  0.000000


  0.928470  -1.200961  0.000000
  -1.200961  -1.356133  0.000000
  0.000000  0.000000  0.000000


  -0.515882  -0.029891  0.000000
  -0.029891  -1.016138  0.000000
  0.000000  0.000000  0.000000


  -6.917390  1.120667  0.000000
  1.120667  -1.370926  0.000000
  0.000000  0.000000  0.000000


  2.493404  -1.844019  0.000000
  -1.844019  -1.041833  0.000000
  0.000000  0.000000  0.000000


  0.659587  -0.827548  0.000000
  -0.827548  -0.662101  0.000000
  0.000000  0.000000  0.000000


  -6.703441  0.639960  0.000000
  0.639960  -1.786622  0.000000
  0.000000  0.000000  0.000000


  4.848231  -1.939160  0.000000
  -1.939160  -0.247288  0.000000
  0.000000  0.000000  0.000000


  4.517839  -1.357514  0.000000
  -1.357514  -0.598943  0.000000
  0.000000  0.000000  0.000000


  5.530862  -2.971930  0.000000
  -2.971930  -0.416683  0.000000
  0.000000  0.000000  0.000000


  -15.950674  3.673712  0.000000
  3.673712  -1.659599  0.000000
  0.000000  0.000000  0.000000


  6.023421  -2.358069  0.000000
  -2.358069  -0.953262  0.000000
  0.000000  0.000000  0.000000


  6.322839  -1.856532  0.000000
  -1.856532  -0.427938  0.000000
  0.000000  0.000000  0.000000


  7.816845  -2.816984  0.000000
  -2.816984  -0.771594  0.000000
  0.000000  0.000000  0.000000


  8.196409  -2.764815  0.000000
  -2.764815  -0.889489  0.000000
  0.000000  0.000000  0.000000


  8.128789  -2.295147  0.000000
  -2.295147  -0.185391  0.000000
  0.000000  0.000000  0.000000


  8.484191  -2.244808  0.000000
  -2.244808  -0.216728  0.000000
  0.000000  0.000000  0.000000


  6.891883  -1.727417  0.000000
  -1.727417  -0.461611  0.000000
  0.000000  0.000000  0.000000


  8.963225  -2.033792  0.000000
  -2.033792  -1.058541  0.000000
  0.000000  0.000000  0.000000


  6.463516  -2.357476  0.000000
  -2.357476  -1.083571  0.000000
  0.000000  0.000000  0.000000


  -8.805485  1.114796  0.000000
  1.114796  -1.860561  0.000000
  0.000000  0.000000  0.000000


  -10.878528  2.292797  0.000000
  2.292797  -1.524879  0.000000
  0.000000  0.000000  0.000000


  -11.252514  1.761791  0.000000
  1.761791  -1.884217  0.000000
  0.000000  0.000000  0.000000


  -9.088747  1.306078  0.000000
  1.306078  -1.910540  0.000000
  0.000000  0.000000  0.000000


  -12.939563  2.790570  0.000000
  2.790570  -1.589774  0.000000
  0.000000  0.000000  0.000000


  -13.385425  3.007008  0.000000
  3.007008  -1.601241  0.000000
  0.000000  0.000000  0.000000


  -10.903000  1.557754  0.000000
  1.557754  -1.866398  0.000000
  0.000000  0.000000  0.000000


  -12.722151  2.557239  0.000000
  2.557239  -1.523819  0.000000
  0.000000  0.000000  0.000000


  -10.577488  1.411142  0.000000
  1.411142  -1.863170  0.000000
  0.000000  0.000000  0.000000


  -13.050890  2.057306  0.000000
  2.057306  -1.846932  0.000000
  0.000000  0.000000  0.000000


  -14.883572  3.044506  0.000000
  3.044506  -1.531198  0.000000
  0.000000  0.000000  0.000000


  -15.267611  3.183714  0.000000
  3.183714  -1.500456  0.000000
  0.000000  0.000000  0.000000


  -12.758383  1.784278  0.000000
  1.784278  -1.828396  0.000000
  0.000000  0.000000  0.000000


  -14.556960  2.796633  0.000000
  2.796633  -1.457693  0.000000
  0.000000  0.000000  0.000000


  -12.434109  1.562336  0.000000
  1.562336  -1.777609  0.000000
  0.000000  0.000000  0.000000


  -14.162140  2.576577  0.000000
  2.576577  -1.421993  0.000000
  0.000000  0.000000  0.000000


  -14.933112  2.211260  0.000000
  2.211260  -1.803632  0.000000
  0.000000  0.000000  0.000000


  -12.022829  1.351626  0.000000
  1.351626  -1.743062  0.000000
  0.000000  0.000000  0.000000


  -14.587678  1.952619  0.000000
  1.952619  -1.747843  0.000000
  0.000000  0.000000  0.000000


  -15.327977  2.433575  0.000000
  2.433575  -1.781837  0.000000
  0.000000  0.000000  0.000000


  -13.306069  2.275754  0.000000
  2.275754  -1.941995  0.000000
  0.000000  0.000000  0.000000


  -15.594551  3.563505  0.000000
  3.563505  -1.666601  0.000000
  0.000000  0.000000  0.000000


  -17.226944  3.405701  0.000000
  3.405701  -1.457336  0.000000
  0.000000  0.000000  0.000000


  -17.665123  2.763242  0.000000
  2.763242  -1.786842  0.000000
  0.000000  0.000000  0.000000


  -19.391266  3.808449  0.000000
  3.808449  -1.438931  0.000000
  0.000000  0.000000  0.000000


  -20.253784  4.064898  0.000000
  4.064898  -1.242013  0.000000
  0.000000  0.000000  0.000000


  -15.485757  2.800856  0.000000
  2.800856  -1.915951  0.000000
  0.000000  0.000000  0.000000


  -16.829824  3.177620  0.000000
  3.177620  -1.405520  0.000000
  0.000000  0.000000  0.000000


  -13.675758  2.364603  0.000000
  2.364603  -1.405039  0.000000
  0.000000  0.000000  0.000000


  -17.244939  2.556766  0.000000
  2.556766  -1.722212  0.000000
  0.000000  0.000000  0.000000


  -19.087057  3.552340  0.000000
  3.552340  -1.340173  0.000000
  0.000000  0.000000  0.000000


  -16.848809  2.297214  0.000000
  2.297214  -1.664131  0.000000
  0.000000  0.000000  0.000000


  -19.476069  2.966869  0.000000
  2.966869  -1.625730  0.000000
  0.000000  0.000000  0.000000


  -17.970421  3.315401  0.000000
  3.315401  -1.594233  0.000000
  0.000000  0.000000  0.000000


  -16.390103  2.942778  0.000000
  2.942778  -1.382151  0.000000
  0.000000  0.000000  0.000000


  -14.158511  1.693592  0.000000
  1.693592  -1.704296  0.000000
  0.000000  0.000000  0.000000


  -18.646751  3.282391  0.000000
  3.282391  -1.304973  0.000000
  0.000000  0.000000  0.000000


  -21.495859  3.934679  0.000000
  3.934679  -1.229968  0.000000
  0.000000  0.000000  0.000000


  -11.534636  2.028497  0.000000
  2.028497  -1.414617  0.000000
  0.000000  0.000000  0.000000


  -9.896326  1.015244  0.000000
  1.015244  -1.794371  0.000000
  0.000000  0.000000  0.000000


  -9.497183  0.802608  0.000000
  0.802608  -1.730539  0.000000
  0.000000  0.000000  0.000000


  -8.973890  1.473289  0.000000
  1.473289  -1.387509  0.000000
  0.000000  0.000000  0.000000


  -6.875651  0.355038  0.000000
  0.355038  -1.754089  0.000000
  0.000000  0.000000  0.000000


  -10.975714  1.831899  0.000000
  1.831899  -1.412553  0.000000
  0.000000  0.000000  0.000000


  -6.449148  0.984336  0.000000
  0.984336  -1.321407  0.000000
  0.000000  0.000000  0.000000


  -4.891228  -0.029006  0.000000
  -0.029006  -1.705508  0.000000
  0.000000  0.000000  0.000000


  -4.474554  -0.175192  0.000000
  -0.175192  -1.642932  0.000000
  0.000000  0.000000  0.000000


  -8.501534  1.312780  0.000000
  1.312780  -1.341888  0.000000
  0.000000  0.000000  0.000000


  -3.939838  0.512123  0.000000
  0.512123  -1.327073  0.000000
  0.000000  0.000000  0.000000


  -5.988511  0.872951  0.000000
  0.872951  -1.295985  0.000000
  0.000000  0.000000  0.000000


  -8.922189  0.638786  0.000000
  0.638786  -1.751088  0.000000
  0.000000  0.000000  0.000000


  -10.516044  1.650689  0.000000
  1.650689  -1.378461  0.000000
  0.000000  0.000000  0.000000


  -8.449078  0.453460  0.000000
  0.453460  -1.690436  0.000000
  0.000000  0.000000  0.000000


  -10.959641  0.965105  0.000000
  0.965105  -1.722460  0.000000
  0.000000  0.000000  0.000000


  -7.883838  1.207417  0.000000
  1.207417  -1.386725  0.000000
  0.000000  0.000000  0.000000


  -5.696692  0.032281  0.000000
  0.032281  -1.708540  0.000000
  0.000000  0.000000  0.000000


  -9.919975  1.507406  0.000000
  1.507406  -1.348793  0.000000
  0.000000  0.000000  0.000000


  -13.199238  2.120725  0.000000
  2.120725  -1.386916  0.000000
  0.000000  0.000000  0.000000


  -13.660123  1.459787  0.000000
  1.459787  -1.668523  0.000000
  0.000000  0.000000  0.000000


  -15.352796  2.475476  0.000000
  2.475476  -1.338202  0.000000
  0.000000  0.000000  0.000000


  -15.936723  2.672054  0.000000
  2.672054  -1.347764  0.000000
  0.000000  0.000000  0.000000


  -16.399116  2.020314  0.000000
  2.020314  -1.614531  0.000000
  0.000000  0.000000  0.000000


  -18.223880  3.068949  0.000000
  3.068949  -1.284074  0.000000
  0.000000  0.000000  0.000000


  -7.349023  1.051469  0.000000
  1.051469  -1.283696  0.000000
  0.000000  0.000000  0.000000


  -12.714706  1.929836  0.000000
  1.929836  -1.320608  0.000000
  0.000000  0.000000  0.000000


  -5.431557  0.490155  0.000000
  0.490155  -1.151377  0.000000
  0.000000  0.000000  0.000000


  -11.500522  1.115863  0.000000
  1.115863  -1.713005  0.000000
  0.000000  0.000000  0.000000


  -3.676601  -0.495160  0.000000
  -0.495160  -1.541456  0.000000
  0.000000  0.000000  0.000000


  -13.187667  1.212607  0.000000
  1.212607  -1.650483  0.000000
  0.000000  0.000000  0.000000


  -14.852639  2.219214  0.000000
  2.219214  -1.280349  0.000000
  0.000000  0.000000  0.000000


  -12.650097  0.980752  0.000000
  0.980752  -1.670989  0.000000
  0.000000  0.000000  0.000000


  -15.347493  1.492333  0.000000
  1.492333  -1.522288  0.000000
  0.000000  0.000000  0.000000


  -15.932876  1.696511  0.000000
  1.696511  -1.556431  0.000000
  0.000000  0.000000  0.000000


  -17.630098  2.714484  0.000000
  2.714484  -1.230871  0.000000
  0.000000  0.000000  0.000000


  -18.120362  2.012345  0.000000
  2.012345  -1.428482  0.000000
  0.000000  0.000000  0.000000


  -19.821442  2.976488  0.000000
  2.976488  -1.090442  0.000000
  0.000000  0.000000  0.000000


  -20.732082  3.426160  0.000000
  3.426160  -1.198792  0.000000
  0.000000  0.000000  0.000000


  -12.072543  1.770924  0.000000
  1.770924  -1.315154  0.000000
  0.000000  0.000000  0.000000


  -9.854960  0.606306  0.000000
  0.606306  -1.687506  0.000000
  0.000000  0.000000  0.000000


  -13.867914  2.123462  0.000000
  2.123462  -1.300291  0.000000
  0.000000  0.000000  0.000000


  -17.108444  2.477500  0.000000
  2.477500  -1.126246  0.000000
  0.000000  0.000000  0.000000


  -17.610258  1.731563  0.000000
  1.731563  -1.451028  0.000000
  0.000000  0.000000  0.000000


  -19.305685  2.750056  0.000000
  2.750056  -1.071259  0.000000
  0.000000  0.000000  0.000000


  -17.008479  1.427694  0.000000
  1.427694  -1.342826  0.000000
  0.000000  0.000000  0.000000


  -19.840957  2.001897  0.000000
  2.001897  -1.166295  0.000000
  0.000000  0.000000  0.000000


  -9.348588  1.367823  0.000000
  1.367823  -1.296649  0.000000
  0.000000  0.000000  0.000000


  -7.824458  0.312457  0.000000
  0.312457  -1.684107  0.000000
  0.000000  0.000000  0.000000


  -7.309917  0.202333  0.000000
  0.202333  -1.650997  0.000000
  0.000000  0.000000  0.000000


  -16.680680  1.927557  0.000000
  1.927557  -0.928369  0.000000
  0.000000  0.000000  0.000000


  -18.571760  2.498230  0.000000
  2.498230  -0.969384  0.000000
  0.000000  0.000000  0.000000


  -21.735208  2.887916  0.000000
  2.887916  -0.805668  0.000000
  0.000000  0.000000  0.000000


  -8.706163  1.204957  0.000000
  1.204957  -1.330814  0.000000
  0.000000  0.000000  0.000000


  -19.934062  3.103156  0.000000
  3.103156  -1.496161  0.000000
  0.000000  0.000000  0.000000


  -6.405754  0.248998  0.000000
  0.248998  -1.749091  0.000000
  0.000000  0.000000  0.000000


  -2.382736  -0.537375  0.000000
  -0.537375  -1.583028  0.000000
  0.000000  0.000000  0.000000


  -2.217247  -0.212289  0.000000
  -0.212289  -0.999872  0.000000
  0.000000  0.000000  0.000000


  -0.046691  -0.026032  0.000000
  -0.026032  -1.778426  0.000000
  0.000000  0.000000  0.000000


  -20.352544  2.212257  0.000000
  2.212257  -1.464912  0.000000
  0.000000  0.000000  0.000000


  -11.953406  5.039825  0.000000
  5.039825  -2.954753  0.000000
  0.000000  0.000000  0.000000


  2.773715  -1.389305  0.000000
  -1.389305  -0.468839  0.000000
  0.000000  0.000000  0.000000


  7.498485  -2.843256  0.000000
  -2.843256  -0.725072  0.000000
  0.000000  0.000000  0.000000


  7.766555  -2.363762  0.000000
  -2.363762  -0.138717  0.000000
  0.000000  0.000000  0.000000


  9.307297  -3.305899  0.000000
  -3.305899  -0.520469  0.000000
  0.000000  0.000000  0.000000


  9.601290  -3.265230  0.000000
  -3.265230  -0.534355  0.000000
  0.000000  0.000000  0.000000


  9.886261  -2.771293  0.000000
  -2.771293  0.049656  0.000000
  0.000000  0.000000  0.000000


  11.288927  -3.732276  0.000000
  -3.732276  -0.296126  0.000000
  0.000000  0.000000  0.000000


  11.718602  -3.674147  0.000000
  -3.674147  -0.363743  0.000000
  0.000000  0.000000  0.000000


  9.565094  -2.834607  0.000000
  -2.834607  0.115574  0.000000
  0.000000  0.000000  0.000000


  11.014083  -3.798281  0.000000
  -3.798281  -0.251383  0.000000
  0.000000  0.000000  0.000000


  9.262348  -2.893120  0.000000
  -2.893120  0.168239  0.000000
  0.000000  0.000000  0.000000


  11.255004  -3.349743  0.000000
  -3.349743  0.391908  0.000000
  0.000000  0.000000  0.000000


  11.570568  -3.240127  0.000000
  -3.240127  0.336529  0.000000
  0.000000  0.000000  0.000000


  10.228131  -2.710805  0.000000
  -2.710805  0.044632  0.000000
  0.000000  0.000000  0.000000


  11.958689  -3.589313  0.000000
  -3.589313  -0.380372  0.000000
  0.000000  0.000000  0.000000


  10.709918  -3.867355  0.000000
  -3.867355  -0.187612  0.000000
  0.000000  0.000000  0.000000


  12.384785  -2.938575  0.000000
  -2.938575  0.089443  0.000000
  0.000000  0.000000  0.000000


  13.684078  -4.106435  0.000000
  -4.106435  -0.036410  0.000000
  0.000000  0.000000  0.000000


  10.620447  -2.599634  0.000000
  -2.599634  -0.007960  0.000000
  0.000000  0.000000  0.000000


  12.060196  -3.107126  0.000000
  -3.107126  0.150269  0.000000
  0.000000  0.000000  0.000000


  8.996622  -3.360313  0.000000
  -3.360313  -0.459711  0.000000
  0.000000  0.000000  0.000000


  12.771142  -4.285015  0.000000
  -4.285015  0.017643  0.000000
  0.000000  0.000000  0.000000


  -21.747397  4.254829  0.000000
  4.254829  -1.479954  0.000000
  0.000000  0.000000  0.000000


  -22.028819  3.816892  0.000000
  3.816892  -1.425789  0.000000
  0.000000  0.000000  0.000000


  -24.768504  4.672117  0.000000
  4.672117  -1.131362  0.000000
  0.000000  0.000000  0.000000


  -25.000674  4.801412  0.000000
  4.801412  -1.046644  0.000000
  0.000000  0.000000  0.000000


  -21.473041  4.505819  0.000000
  4.505819  -1.649213  0.000000
  0.000000  0.000000  0.000000


  12.993296  -4.207370  0.000000
  -4.207370  -0.016554  0.000000
  0.000000  0.000000  0.000000


  13.252313  -3.725143  0.000000
  -3.725143  0.699594  0.000000
  0.000000  0.000000  0.000000


  14.652282  -4.796758  0.000000
  -4.796758  0.310569  0.000000
  0.000000  0.000000  0.000000


  15.040922  -4.631298  0.000000
  -4.631298  0.321684  0.000000
  0.000000  0.000000  0.000000


  -2.472193  0.155595  0.000000
  0.155595  -1.088084  0.000000
  0.000000  0.000000  0.000000


  -20.639797  4.966484  0.000000
  4.966484  -1.617192  0.000000
  0.000000  0.000000  0.000000


  -22.223654  3.372585  0.000000
  3.372585  -1.052651  0.000000
  0.000000  0.000000  0.000000


  -23.333671  1.939848  0.000000
  1.939848  -0.798684  0.000000
  0.000000  0.000000  0.000000


  -21.850872  2.612875  0.000000
  2.612875  -1.446498  0.000000
  0.000000  0.000000  0.000000


  7.759122  -4.877671  0.000000
  -4.877671  1.247714  0.000000
  0.000000  0.000000  0.000000


  -14.534256  6.128016  0.000000
  6.128016  -3.255162  0.000000
  0.000000  0.000000  0.000000


  -14.311634  6.155965  0.000000
  6.155965  -3.364114  0.000000
  0.000000  0.000000  0.000000


  -14.120916  6.233381  0.000000
  6.233381  -4.086526  0.000000
  0.000000  0.000000  0.000000


  -16.309979  7.309381  0.000000
  7.309381  -3.783145  0.000000
  0.000000  0.000000  0.000000


  -16.075234  7.043678  0.000000
  7.043678  -3.776528  0.000000
  0.000000  0.000000  0.000000


  -14.423817  6.107007  0.000000
  6.107007  -3.973178  0.000000
  0.000000  0.000000  0.000000


  -16.018168  7.379474  0.000000
  7.379474  -4.414887  0.000000
  0.000000  0.000000  0.000000


  -15.523731  8.034362  0.000000
  8.034362  -4.712185  0.000000
  0.000000  0.000000  0.000000


  -13.798574  6.083905  0.000000
  6.083905  -4.097285  0.000000
  0.000000  0.000000  0.000000


  5.664111  -1.899583  0.000000
  -1.899583  -0.345459  0.000000
  0.000000  0.000000  0.000000


  8.004156  -4.465681  0.000000
  -4.465681  1.728223  0.000000
  0.000000  0.000000  0.000000


  9.509430  -5.416424  0.000000
  -5.416424  1.439942  0.000000
  0.000000  0.000000  0.000000


  7.967722  -4.549307  0.000000
  -4.549307  1.822232  0.000000
  0.000000  0.000000  0.000000


  9.594161  -5.160170  0.000000
  -5.160170  2.192579  0.000000
  0.000000  0.000000  0.000000


  10.985130  -6.106504  0.000000
  -6.106504  1.909594  0.000000
  0.000000  0.000000  0.000000


  9.551858  -5.315466  0.000000
  -5.315466  2.288628  0.000000
  0.000000  0.000000  0.000000


  11.113104  -5.780065  0.000000
  -5.780065  2.741691  0.000000
  0.000000  0.000000  0.000000


  -7.690093  2.137241  0.000000
  2.137241  -2.336865  0.000000
  0.000000  0.000000  0.000000


  -20.870971  4.962707  0.000000
  4.962707  -1.664373  0.000000
  0.000000  0.000000  0.000000


  -21.563442  2.640707  0.000000
  2.640707  -1.238505  0.000000
  0.000000  0.000000  0.000000


  12.816313  -5.376581  0.000000
  -5.376581  0.799729  0.000000
  0.000000  0.000000  0.000000


  -17.910596  7.051715  0.000000
  7.051715  -3.830092  0.000000
  0.000000  0.000000  0.000000


  -14.167407  4.439274  0.000000
  4.439274  -2.883449  0.000000
  0.000000  0.000000  0.000000


  7.155686  -2.431338  0.000000
  -2.431338  -0.074570  0.000000
  0.000000  0.000000  0.000000


  4.971444  -3.168834  0.000000
  -3.168834  -0.119445  0.000000
  0.000000  0.000000  0.000000


  3.400461  -2.162717  0.000000
  -2.162717  0.165817  0.000000
  0.000000  0.000000  0.000000


  3.276504  -2.449782  0.000000
  -2.449782  -0.488427  0.000000
  0.000000  0.000000  0.000000


  -2.128135  -0.704512  0.000000
  -0.704512  -1.301917  0.000000
  0.000000  0.000000  0.000000


  6.300341  -3.942086  0.000000
  -3.942086  1.541562  0.000000
  0.000000  0.000000  0.000000


  7.875064  -4.807951  0.000000
  -4.807951  1.119043  0.000000
  0.000000  0.000000  0.000000


  -1.415700  -0.665210  0.000000
  -0.665210  -0.112379  0.000000
  0.000000  0.000000  0.000000


  -18.525010  4.204216  0.000000
  4.204216  -1.588932  0.000000
  0.000000  0.000000  0.000000


  5.101819  -1.902763  0.000000
  -1.902763  -0.291329  0.000000
  0.000000  0.000000  0.000000


  6.618583  -2.905392  0.000000
  -2.905392  -0.622324  0.000000
  0.000000  0.000000  0.000000


  6.834443  -2.492949  0.000000
  -2.492949  -0.000705  0.000000
  0.000000  0.000000  0.000000


  8.424498  -3.423799  0.000000
  -3.423799  -0.370582  0.000000
  0.000000  0.000000  0.000000


  8.678453  -3.392618  0.000000
  -3.392618  -0.398073  0.000000
  0.000000  0.000000  0.000000


  8.956017  -2.940438  0.000000
  -2.940438  0.173215  0.000000
  0.000000  0.000000  0.000000


  6.617492  -2.515615  0.000000
  -2.515615  0.062004  0.000000
  0.000000  0.000000  0.000000


  8.629564  -3.022192  0.000000
  -3.022192  0.291666  0.000000
  0.000000  0.000000  0.000000


  -3.465059  0.425926  0.000000
  0.425926  -0.804137  0.000000
  0.000000  0.000000  0.000000


  -1.674597  -0.547900  0.000000
  -0.547900  -1.118194  0.000000
  0.000000  0.000000  0.000000


  -13.883530  6.116387  0.000000
  6.116387  -3.405485  0.000000
  0.000000  0.000000  0.000000


  -11.828210  5.039058  0.000000
  5.039058  -3.729349  0.000000
  0.000000  0.000000  0.000000


  -13.557759  6.084569  0.000000
  6.084569  -3.434721  0.000000
  0.000000  0.000000  0.000000


  3.160432  -2.909946  0.000000
  -2.909946  0.178634  0.000000
  0.000000  0.000000  0.000000


  -10.393771  4.049497  0.000000
  4.049497  -2.491226  0.000000
  0.000000  0.000000  0.000000


  5.681624  -2.977911  0.000000
  -2.977911  -0.469993  0.000000
  0.000000  0.000000  0.000000


  -14.862985  6.098935  0.000000
  6.098935  -3.215643  0.000000
  0.000000  0.000000  0.000000


  -14.771866  6.088281  0.000000
  6.088281  -3.782686  0.000000
  0.000000  0.000000  0.000000


  -16.978868  7.178285  0.000000
  7.178285  -3.513456  0.000000
  0.000000  0.000000  0.000000


  -16.602436  7.193525  0.000000
  7.193525  -3.622783  0.000000
  0.000000  0.000000  0.000000


  -16.329927  7.377750  0.000000
  7.377750  -4.323516  0.000000
  0.000000  0.000000  0.000000


  -0.952420  -0.712836  0.000000
  -0.712836  -1.584428  0.000000
  0.000000  0.000000  0.000000


  -8.443187  1.634696  0.000000
  1.634696  -1.437552  0.000000
  0.000000  0.000000  0.000000


  -5.145062  -0.089230  0.000000
  -0.089230  -1.670138  0.000000
  0.000000  0.000000  0.000000


  -18.711093  2.411180  0.000000
  2.411180  -1.525116  0.000000
  0.000000  0.000000  0.000000


  -21.362839  3.557588  0.000000
  3.557588  -1.159875  0.000000
  0.000000  0.000000  0.000000


  -21.538399  3.178497  0.000000
  3.178497  -1.374147  0.000000
  0.000000  0.000000  0.000000


  -4.521902  2.460745  0.000000
  2.460745  -2.765196  0.000000
  0.000000  0.000000  0.000000


  -1.244800  0.865854  0.000000
  0.865854  0.397237  0.000000
  0.000000  0.000000  0.000000


  -1.722503  0.554779  0.000000
  0.554779  1.423687  0.000000
  0.000000  0.000000  0.000000


  6.207957  -6.623628  0.000000
  -6.623628  7.017343  0.000000
  0.000000  0.000000  0.000000


  -1.037369  -0.491294  0.000000
  -0.491294  2.748822  0.000000
  0.000000  0.000000  0.000000


  3.739284  -5.347598  0.000000
  -5.347598  7.716244  0.000000
  0.000000  0.000000  0.000000


  3.086029  -5.575900  0.000000
  -5.575900  7.692074  0.000000
  0.000000  0.000000  0.000000


  2.408178  -5.132864  0.000000
  -5.132864  7.090677  0.000000
  0.000000  0.000000  0.000000


  8.995902  -7.359043  0.000000
  -7.359043  6.003505  0.000000
  0.000000  0.000000  0.000000


  8.564463  -7.782921  0.000000
  -7.782921  5.587575  0.000000
  0.000000  0.000000  0.000000


  7.575448  -6.433246  0.000000
  -6.433246  5.295423  0.000000
  0.000000  0.000000  0.000000


  17.892797  -4.021669  0.000000
  -4.021669  0.854919  0.000000
  0.000000  0.000000  0.000000


  17.842666  -4.237887  0.000000
  -4.237887  -0.071643  0.000000
  0.000000  0.000000  0.000000


  16.569437  -3.189010  0.000000
  -3.189010  0.670622  0.000000
  0.000000  0.000000  0.000000


  2.940872  -4.771623  0.000000
  -4.771623  7.674223  0.000000
  0.000000  0.000000  0.000000


  2.337036  -4.141264  0.000000
  -4.141264  6.720817  0.000000
  0.000000  0.000000  0.000000


  -7.083140  6.055538  0.000000
  6.055538  -6.638331  0.000000
  0.000000  0.000000  0.000000


  -0.047502  0.157034  0.000000
  0.157034  1.942038  0.000000
  0.000000  0.000000  0.000000


  -0.164828  0.325376  0.000000
  0.325376  1.975457  0.000000
  0.000000  0.000000  0.000000


  -0.054469  0.281635  0.000000
  0.281635  1.866014  0.000000
  0.000000  0.000000  0.000000


  -3.753085  1.291695  0.000000
  1.291695  -1.223710  0.000000
  0.000000  0.000000  0.000000


  -12.688998  1.298049  0.000000
  1.298049  -0.770319  0.000000
  0.000000  0.000000  0.000000


  -10.386931  7.441031  0.000000
  7.441031  -6.648612  0.000000
  0.000000  0.000000  0.000000


  -12.407243  9.095365  0.000000
  9.095365  -7.154212  0.000000
  0.000000  0.000000  0.000000


  16.864105  -5.346869  0.000000
  -5.346869  1.635522  0.000000
  0.000000  0.000000  0.000000


  0.241418  -1.281543  0.000000
  -1.281543  5.326593  0.000000
  0.000000  0.000000  0.000000


  0.073221  -1.250224  0.000000
  -1.250224  5.360390  0.000000
  0.000000  0.000000  0.000000


  -0.053653  -0.799864  0.000000
  -0.799864  4.934524  0.000000
  0.000000  0.000000  0.000000


  -0.699103  -0.839773  0.000000
  -0.839773  3.973113  0.000000
  0.000000  0.000000  0.000000


  -3.301993  2.497076  0.000000
  2.497076  -2.355004  0.000000
  0.000000  0.000000  0.000000


  -3.170103  2.292730  0.000000
  2.292730  -2.901214  0.000000
  0.000000  0.000000  0.000000


  -3.629283  3.251922  0.000000
  3.251922  -3.467515  0.000000
  0.000000  0.000000  0.000000


  -3.710219  3.127766  0.000000
  3.127766  -2.987508  0.000000
  0.000000  0.000000  0.000000


  -3.261625  2.958418  0.000000
  2.958418  -3.162268  0.000000
  0.000000  0.000000  0.000000


  -2.864232  2.866355  0.000000
  2.866355  -4.171032  0.000000
  0.000000  0.000000  0.000000


  -3.521814  3.610877  0.000000
  3.610877  -4.338020  0.000000
  0.000000  0.000000  0.000000


  -3.316867  3.270924  0.000000
  3.270924  -3.804906  0.000000
  0.000000  0.000000  0.000000


  -3.072900  3.159248  0.000000
  3.159248  -4.693100  0.000000
  0.000000  0.000000  0.000000


  -3.104798  3.501547  0.000000
  3.501547  -5.391777  0.000000
  0.000000  0.000000  0.000000


  -2.890649  3.189335  0.000000
  3.189335  -4.881367  0.000000
  0.000000  0.000000  0.000000


  -2.683470  2.573285  0.000000
  2.573285  -3.688175  0.000000
  0.000000  0.000000  0.000000


  3.136478  -4.967734  0.000000
  -4.967734  7.749151  0.000000
  0.000000  0.000000  0.000000


  2.609024  -5.127021  0.000000
  -5.127021  7.777573  0.000000
  0.000000  0.000000  0.000000


  2.657638  -4.576789  0.000000
  -4.576789  6.794354  0.000000
  0.000000  0.000000  0.000000


  2.647060  -4.503574  0.000000
  -4.503574  6.996056  0.000000
  0.000000  0.000000  0.000000


  -0.189570  -0.916494  0.000000
  -0.916494  5.191233  0.000000
  0.000000  0.000000  0.000000


  9.293742  -0.059641  0.000000
  -0.059641  -0.673513  0.000000
  0.000000  0.000000  0.000000


  -0.421346  -1.743378  0.000000
  -1.743378  0.467510  0.000000
  0.000000  0.000000  0.000000


  10.017239  -7.470509  0.000000
  -7.470509  5.532115  0.000000
  0.000000  0.000000  0.000000


  9.906920  -7.736771  0.000000
  -7.736771  5.005463  0.000000
  0.000000  0.000000  0.000000


  -1.206525  -1.259690  0.000000
  -1.259690  0.478719  0.000000
  0.000000  0.000000  0.000000


  18.830323  -2.404888  0.000000
  -2.404888  0.275373  0.000000
  0.000000  0.000000  0.000000


  7.940806  -6.075334  0.000000
  -6.075334  4.196462  0.000000
  0.000000  0.000000  0.000000


  -3.156573  2.417741  0.000000
  2.417741  -1.942306  0.000000
  0.000000  0.000000  0.000000


  -0.003765  0.083144  0.000000
  0.083144  2.176514  0.000000
  0.000000  0.000000  0.000000


  -4.669963  2.485046  0.000000
  2.485046  -2.803668  0.000000
  0.000000  0.000000  0.000000


  -0.974486  -0.358179  0.000000
  -0.358179  3.438533  0.000000
  0.000000  0.000000  0.000000


  -0.275787  0.922207  0.000000
  0.922207  0.159621  0.000000
  0.000000  0.000000  0.000000


  15.489783  -6.248796  0.000000
  -6.248796  2.460020  0.000000
  0.000000  0.000000  0.000000


  -6.776655  3.072072  0.000000
  3.072072  -2.360242  0.000000
  0.000000  0.000000  0.000000


  -4.219570  3.063858  0.000000
  3.063858  -2.895566  0.000000
  0.000000  0.000000  0.000000


  -2.675430  0.907080  0.000000
  0.907080  -0.411253  0.000000
  0.000000  0.000000  0.000000


  3.359118  -5.100336  0.000000
  -5.100336  7.652929  0.000000
  0.000000  0.000000  0.000000


  2.822424  -5.268708  0.000000
  -5.268708  7.679196  0.000000
  0.000000  0.000000  0.000000


  -3.056513  2.665606  0.000000
  2.665606  -2.659402  0.000000
  0.000000  0.000000  0.000000


  -2.448478  1.955321  0.000000
  1.955321  -2.524954  0.000000
  0.000000  0.000000  0.000000


  -2.866843  2.371268  0.000000
  2.371268  -2.208219  0.000000
  0.000000  0.000000  0.000000


  -2.476512  2.278827  0.000000
  2.278827  -3.154265  0.000000
  0.000000  0.000000  0.000000


  -2.230711  1.691056  0.000000
  1.691056  -2.061043  0.000000
  0.000000  0.000000  0.000000


  -1.177192  1.135992  0.000000
  1.135992  0.393515  0.000000
  0.000000  0.000000  0.000000


  0.242461  -1.301547  0.000000
  -1.301547  5.483734  0.000000
  0.000000  0.000000  0.000000


  0.039841  -1.385974  0.000000
  -1.385974  5.458107  0.000000
  0.000000  0.000000  0.000000


  0.026191  -0.949012  0.000000
  -0.949012  5.012328  0.000000
  0.000000  0.000000  0.000000


  -12.601432  7.920691  0.000000
  7.920691  -6.002453  0.000000
  0.000000  0.000000  0.000000


  -1.624720  3.181986  0.000000
  3.181986  -6.746620  0.000000
  0.000000  0.000000  0.000000


  -1.697764  3.034742  0.000000
  3.034742  -6.829093  0.000000
  0.000000  0.000000  0.000000


  -1.747253  2.764657  0.000000
  2.764657  -5.768751  0.000000
  0.000000  0.000000  0.000000


  -1.773002  3.608880  0.000000
  3.608880  -7.850883  0.000000
  0.000000  0.000000  0.000000


  -1.476015  3.586295  0.000000
  3.586295  -8.846158  0.000000
  0.000000  0.000000  0.000000


  -1.544382  3.210007  0.000000
  3.210007  -7.911786  0.000000
  0.000000  0.000000  0.000000


  -1.584507  3.455266  0.000000
  3.455266  -7.761763  0.000000
  0.000000  0.000000  0.000000


  -1.620948  2.999036  0.000000
  2.999036  -6.810104  0.000000
  0.000000  0.000000  0.000000


  -1.740507  3.083529  0.000000
  3.083529  -6.869217  0.000000
  0.000000  0.000000  0.000000


  -1.750117  3.293284  0.000000
  3.293284  -6.752227  0.000000
  0.000000  0.000000  0.000000


  -5.173443  -0.437741  0.000000
  -0.437741  -0.774212  0.000000
  0.000000  0.000000  0.000000


  17.185940  -4.750062  0.000000
  -4.750062  1.234735  0.000000
  0.000000  0.000000  0.000000


  16.937787  -5.243259  0.000000
  -5.243259  0.944862  0.000000
  0.000000  0.000000  0.000000


  0.502786  -2.029481  0.000000
  -2.029481  5.832190  0.000000
  0.000000  0.000000  0.000000


  5.098868  -6.163265  0.000000
  -6.163265  7.516466  0.000000
  0.000000  0.000000  0.000000


  4.667417  -6.542027  0.000000
  -6.542027  7.196512  0.000000
  0.000000  0.000000  0.000000


  4.262580  -5.506065  0.000000
  -5.506065  6.907184  0.000000
  0.000000  0.000000  0.000000


  -3.459592  1.101427  0.000000
  1.101427  -1.198833  0.000000
  0.000000  0.000000  0.000000


  -0.001909  0.249913  0.000000
  0.249913  0.825857  0.000000
  0.000000  0.000000  0.000000


  18.917922  -1.758229  0.000000
  -1.758229  0.078117  0.000000
  0.000000  0.000000  0.000000


  18.877406  -1.996602  0.000000
  -1.996602  -0.676794  0.000000
  0.000000  0.000000  0.000000


  17.022010  -1.670085  0.000000
  -1.670085  -0.025048  0.000000
  0.000000  0.000000  0.000000


  16.918385  -1.872421  0.000000
  -1.872421  0.136535  0.000000
  0.000000  0.000000  0.000000


  -8.566440  7.546279  0.000000
  7.546279  -7.928981  0.000000
  0.000000  0.000000  0.000000


  -0.017678  0.194509  0.000000
  0.194509  1.337110  0.000000
  0.000000  0.000000  0.000000


  -0.077896  0.379192  0.000000
  0.379192  1.377035  0.000000
  0.000000  0.000000  0.000000


  -0.331071  1.103098  0.000000
  1.103098  0.131919  0.000000
  0.000000  0.000000  0.000000


  17.625931  -4.455105  0.000000
  -4.455105  1.372582  0.000000
  0.000000  0.000000  0.000000


  -8.473824  6.395598  0.000000
  6.395598  -6.296540  0.000000
  0.000000  0.000000  0.000000


  11.924582  -7.426088  0.000000
  -7.426088  4.514779  0.000000
  0.000000  0.000000  0.000000


  11.761614  -7.755811  0.000000
  -7.755811  3.903499  0.000000
  0.000000  0.000000  0.000000


  10.610309  -6.566510  0.000000
  -6.566510  3.853402  0.000000
  0.000000  0.000000  0.000000


  10.625205  -6.690238  0.000000
  -6.690238  3.648992  0.000000
  0.000000  0.000000  0.000000


  9.233496  -6.811365  0.000000
  -6.811365  3.887827  0.000000
  0.000000  0.000000  0.000000


  4.011818  -5.558188  0.000000
  -5.558188  7.691181  0.000000
  0.000000  0.000000  0.000000


  3.085363  -5.541169  0.000000
  -5.541169  7.937346  0.000000
  0.000000  0.000000  0.000000


  3.862693  -5.801135  0.000000
  -5.801135  7.348932  0.000000
  0.000000  0.000000  0.000000


  -6.087897  5.593380  0.000000
  5.593380  -6.628095  0.000000
  0.000000  0.000000  0.000000


  -6.712532  6.634026  0.000000
  6.634026  -7.163461  0.000000
  0.000000  0.000000  0.000000


  -6.499259  6.561293  0.000000
  6.561293  -7.863625  0.000000
  0.000000  0.000000  0.000000


  -0.006131  -0.444690  0.000000
  -0.444690  3.940950  0.000000
  0.000000  0.000000  0.000000


  12.102545  -7.442033  0.000000
  -7.442033  4.472370  0.000000
  0.000000  0.000000  0.000000


  12.882598  -7.233688  0.000000
  -7.233688  3.995300  0.000000
  0.000000  0.000000  0.000000


  12.590476  -7.626017  0.000000
  -7.626017  3.533668  0.000000
  0.000000  0.000000  0.000000


  11.209095  -6.622495  0.000000
  -6.622495  3.804984  0.000000
  0.000000  0.000000  0.000000


  11.050952  -6.928219  0.000000
  -6.928219  3.214691  0.000000
  0.000000  0.000000  0.000000


  11.995408  -7.916860  0.000000
  -7.916860  3.669389  0.000000
  0.000000  0.000000  0.000000


  9.729751  -5.921027  0.000000
  -5.921027  3.273503  0.000000
  0.000000  0.000000  0.000000


  9.873666  -6.003676  0.000000
  -6.003676  3.279039  0.000000
  0.000000  0.000000  0.000000


  2.057248  -4.018957  0.000000
  -4.018957  7.487481  0.000000
  0.000000  0.000000  0.000000


  -0.460018  -0.314206  0.000000
  -0.314206  3.507149  0.000000
  0.000000  0.000000  0.000000


  -0.221123  1.361155  0.000000
  1.361155  0.003551  0.000000
  0.000000  0.000000  0.000000


  -1.666162  -0.154527  0.000000
  -0.154527  -0.046048  0.000000
  0.000000  0.000000  0.000000


  -0.975998  2.062464  0.000000
  2.062464  -4.107682  0.000000
  0.000000  0.000000  0.000000


  18.197710  -3.669699  0.000000
  -3.669699  1.017330  0.000000
  0.000000  0.000000  0.000000


  0.454405  -1.775407  0.000000
  -1.775407  6.065978  0.000000
  0.000000  0.000000  0.000000


  -1.003365  0.002191  0.000000
  0.002191  3.065921  0.000000
  0.000000  0.000000  0.000000


  11.676201  -7.274406  0.000000
  -7.274406  4.499711  0.000000
  0.000000  0.000000  0.000000


  11.197709  -7.739138  0.000000
  -7.739138  4.166865  0.000000
  0.000000  0.000000  0.000000


  1.583629  -3.402704  0.000000
  -3.402704  7.057318  0.000000
  0.000000  0.000000  0.000000


  1.094500  -3.486528  0.000000
  -3.486528  7.163356  0.000000
  0.000000  0.000000  0.000000


  0.668872  -2.110811  0.000000
  -2.110811  6.301469  0.000000
  0.000000  0.000000  0.000000


  0.172627  -1.981157  0.000000
  -1.981157  6.478682  0.000000
  0.000000  0.000000  0.000000


  18.706145  -2.480221  0.000000
  -2.480221  0.280524  0.000000
  0.000000  0.000000  0.000000


  18.649495  -2.744049  0.000000
  -2.744049  -0.550394  0.000000
  0.000000  0.000000  0.000000


  16.850799  -2.257562  0.000000
  -2.257562  0.087403  0.000000
  0.000000  0.000000  0.000000


  18.798028  -2.590468  0.000000
  -2.590468  -0.693578  0.000000
  0.000000  0.000000  0.000000


  17.029868  -1.776616  0.000000
  -1.776616  0.232837  0.000000
  0.000000  0.000000  0.000000


  16.805674  -2.469347  0.000000
  -2.469347  -0.716619  0.000000
  0.000000  0.000000  0.000000


  14.949431  -1.895751  0.000000
  -1.895751  0.019430  0.000000
  0.000000  0.000000  0.000000


  14.867931  -2.138436  0.000000
  -2.138436  -0.031955  0.000000
  0.000000  0.000000  0.000000


  16.722347  -2.617059  0.000000
  -2.617059  -0.720457  0.000000
  0.000000  0.000000  0.000000


  14.779807  -2.281715  0.000000
  -2.281715  0.014061  0.000000
  0.000000  0.000000  0.000000


  16.637923  -2.772910  0.000000
  -2.772910  -0.670641  0.000000
  0.000000  0.000000  0.000000


  14.839152  -2.305978  0.000000
  -2.305978  -0.913310  0.000000
  0.000000  0.000000  0.000000


  12.955818  -1.795275  0.000000
  -1.795275  -0.211687  0.000000
  0.000000  0.000000  0.000000


  14.905483  -2.116835  0.000000
  -2.116835  -0.975867  0.000000
  0.000000  0.000000  0.000000


  13.081868  -1.657391  0.000000
  -1.657391  -0.329416  0.000000
  0.000000  0.000000  0.000000


  12.924996  -1.969879  0.000000
  -1.969879  -1.100781  0.000000
  0.000000  0.000000  0.000000


  12.878300  -1.948890  0.000000
  -1.948890  -0.195467  0.000000
  0.000000  0.000000  0.000000


  15.129543  -2.061889  0.000000
  -2.061889  -0.999985  0.000000
  0.000000  0.000000  0.000000


  13.036489  -1.873174  0.000000
  -1.873174  -1.133060  0.000000
  0.000000  0.000000  0.000000


  10.993307  -1.528013  0.000000
  -1.528013  -0.418858  0.000000
  0.000000  0.000000  0.000000


  10.898452  -1.658255  0.000000
  -1.658255  -0.389034  0.000000
  0.000000  0.000000  0.000000


  10.867781  -1.823402  0.000000
  -1.823402  -1.215749  0.000000
  0.000000  0.000000  0.000000


  8.911404  -1.331565  0.000000
  -1.331565  -0.551141  0.000000
  0.000000  0.000000  0.000000


  8.804314  -1.472088  0.000000
  -1.472088  -0.526319  0.000000
  0.000000  0.000000  0.000000


  8.772744  -1.638380  0.000000
  -1.638380  -1.343397  0.000000
  0.000000  0.000000  0.000000


  6.777112  -1.137050  0.000000
  -1.137050  -0.668710  0.000000
  0.000000  0.000000  0.000000


  6.684033  -1.274625  0.000000
  -1.274625  -0.633129  0.000000
  0.000000  0.000000  0.000000


  10.954015  -1.728087  0.000000
  -1.728087  -1.261530  0.000000
  0.000000  0.000000  0.000000


  8.995458  -1.235207  0.000000
  -1.235207  -0.559782  0.000000
  0.000000  0.000000  0.000000


  11.055735  -1.627358  0.000000
  -1.627358  -1.259357  0.000000
  0.000000  0.000000  0.000000


  8.957966  -1.427907  0.000000
  -1.427907  -1.381594  0.000000
  0.000000  0.000000  0.000000


  8.860433  -1.558794  0.000000
  -1.558794  -1.367548  0.000000
  0.000000  0.000000  0.000000


  6.860369  -1.061170  0.000000
  -1.061170  -0.693510  0.000000
  0.000000  0.000000  0.000000


  6.822118  -1.251616  0.000000
  -1.251616  -1.480435  0.000000
  0.000000  0.000000  0.000000


  4.792936  -0.769270  0.000000
  -0.769270  -0.795402  0.000000
  0.000000  0.000000  0.000000


  4.684536  -0.890473  0.000000
  -0.890473  -0.776446  0.000000
  0.000000  0.000000  0.000000


  11.110000  -1.389876  0.000000
  -1.389876  -0.440344  0.000000
  0.000000  0.000000  0.000000


  13.155194  -1.770898  0.000000
  -1.770898  -1.131606  0.000000
  0.000000  0.000000  0.000000


  6.916057  -1.197068  0.000000
  -1.197068  -1.483248  0.000000
  0.000000  0.000000  0.000000


  4.665221  -1.017403  0.000000
  -1.017403  -1.595619  0.000000
  0.000000  0.000000  0.000000


  13.204834  -1.546870  0.000000
  -1.546870  -0.305222  0.000000
  0.000000  0.000000  0.000000


  15.236361  -1.948519  0.000000
  -1.948519  -0.962761  0.000000
  0.000000  0.000000  0.000000


  6.660964  -1.414553  0.000000
  -1.414553  -1.463790  0.000000
  0.000000  0.000000  0.000000


  4.618455  -0.944264  0.000000
  -0.944264  -0.774046  0.000000
  0.000000  0.000000  0.000000


  6.739775  -1.320457  0.000000
  -1.320457  -1.493488  0.000000
  0.000000  0.000000  0.000000


  4.582765  -1.119232  0.000000
  -1.119232  -1.559982  0.000000
  0.000000  0.000000  0.000000


  2.499219  -0.630731  0.000000
  -0.630731  -0.907001  0.000000
  0.000000  0.000000  0.000000


  2.466554  -0.798337  0.000000
  -0.798337  -1.670058  0.000000
  0.000000  0.000000  0.000000


  2.422808  -0.697086  0.000000
  -0.697086  -0.871706  0.000000
  0.000000  0.000000  0.000000


  2.389787  -0.863374  0.000000
  -0.863374  -1.652422  0.000000
  0.000000  0.000000  0.000000


  0.331959  -0.300062  0.000000
  -0.300062  -0.980260  0.000000
  0.000000  0.000000  0.000000


  0.256377  -0.394002  0.000000
  -0.394002  -0.990685  0.000000
  0.000000  0.000000  0.000000


  0.237335  -0.515508  0.000000
  -0.515508  -1.765190  0.000000
  0.000000  0.000000  0.000000


  -2.047078  0.006708  0.000000
  0.006708  -1.051985  0.000000
  0.000000  0.000000  0.000000


  -2.285692  -0.104216  0.000000
  -0.104216  -0.882919  0.000000
  0.000000  0.000000  0.000000


  4.551352  -1.008219  0.000000
  -1.008219  -0.747711  0.000000
  0.000000  0.000000  0.000000


  0.051959  -0.391613  0.000000
  -0.391613  -0.911317  0.000000
  0.000000  0.000000  0.000000


  2.525613  -0.787686  0.000000
  -0.787686  -1.654632  0.000000
  0.000000  0.000000  0.000000


  0.270030  -0.554552  0.000000
  -0.554552  -1.712399  0.000000
  0.000000  0.000000  0.000000


  -1.791436  -0.045246  0.000000
  -0.045246  -1.032381  0.000000
  0.000000  0.000000  0.000000


  0.403178  -0.535937  0.000000
  -0.535937  -1.722650  0.000000
  0.000000  0.000000  0.000000


  -1.816390  -0.185901  0.000000
  -0.185901  -1.812970  0.000000
  0.000000  0.000000  0.000000


  -1.909029  0.375456  0.000000
  0.375456  -1.729004  0.000000
  0.000000  0.000000  0.000000


  9.129578  -1.119763  0.000000
  -1.119763  -0.568991  0.000000
  0.000000  0.000000  0.000000


  11.252574  -1.268479  0.000000
  -1.268479  -0.429174  0.000000
  0.000000  0.000000  0.000000


  6.969591  -0.963013  0.000000
  -0.963013  -0.679296  0.000000
  0.000000  0.000000  0.000000


  9.077289  -1.354047  0.000000
  -1.354047  -1.388128  0.000000
  0.000000  0.000000  0.000000


  7.091859  -0.883839  0.000000
  -0.883839  -0.675082  0.000000
  0.000000  0.000000  0.000000


  9.201441  -1.262555  0.000000
  -1.262555  -1.366843  0.000000
  0.000000  0.000000  0.000000


  7.050136  -1.092404  0.000000
  -1.092404  -1.477552  0.000000
  0.000000  0.000000  0.000000


  8.712667  -1.725022  0.000000
  -1.725022  -1.331610  0.000000
  0.000000  0.000000  0.000000


  6.627666  -1.358721  0.000000
  -1.358721  -0.603735  0.000000
  0.000000  0.000000  0.000000


  6.605814  -1.493081  0.000000
  -1.493081  -1.428253  0.000000
  0.000000  0.000000  0.000000


  4.748076  -0.978720  0.000000
  -0.978720  -1.596648  0.000000
  0.000000  0.000000  0.000000


  2.680551  -0.543240  0.000000
  -0.543240  -0.869807  0.000000
  0.000000  0.000000  0.000000


  2.576851  -0.568207  0.000000
  -0.568207  -0.874438  0.000000
  0.000000  0.000000  0.000000


  4.844637  -0.926060  0.000000
  -0.926060  -1.564678  0.000000
  0.000000  0.000000  0.000000


  4.893485  -0.701655  0.000000
  -0.701655  -0.794915  0.000000
  0.000000  0.000000  0.000000


  2.646294  -0.732288  0.000000
  -0.732288  -1.666018  0.000000
  0.000000  0.000000  0.000000


  0.529504  -0.247648  0.000000
  -0.247648  -0.930473  0.000000
  0.000000  0.000000  0.000000


  0.473972  -0.263764  0.000000
  -0.263764  -0.964717  0.000000
  0.000000  0.000000  0.000000


  2.720792  -0.716654  0.000000
  -0.716654  -1.616726  0.000000
  0.000000  0.000000  0.000000


  0.498884  -0.420204  0.000000
  -0.420204  -1.701721  0.000000
  0.000000  0.000000  0.000000


  2.794736  -0.430661  0.000000
  -0.430661  -0.863289  0.000000
  0.000000  0.000000  0.000000


  4.975509  -0.896612  0.000000
  -0.896612  -1.532769  0.000000
  0.000000  0.000000  0.000000


  5.042637  -0.627400  0.000000
  -0.627400  -0.760041  0.000000
  0.000000  0.000000  0.000000


  7.186157  -1.041335  0.000000
  -1.041335  -1.445972  0.000000
  0.000000  0.000000  0.000000


  7.247424  -0.784907  0.000000
  -0.784907  -0.657774  0.000000
  0.000000  0.000000  0.000000


  9.339722  -1.174160  0.000000
  -1.174160  -1.336929  0.000000
  0.000000  0.000000  0.000000


  5.206722  -0.568752  0.000000
  -0.568752  -0.726598  0.000000
  0.000000  0.000000  0.000000


  9.394635  -0.932872  0.000000
  -0.932872  -0.545255  0.000000
  0.000000  0.000000  0.000000


  7.399435  -0.707139  0.000000
  -0.707139  -0.625740  0.000000
  0.000000  0.000000  0.000000


  2.961742  -0.386455  0.000000
  -0.386455  -0.823076  0.000000
  0.000000  0.000000  0.000000


  0.679174  -0.195155  0.000000
  -0.195155  -0.907843  0.000000
  0.000000  0.000000  0.000000


  5.147430  -0.842695  0.000000
  -0.842695  -1.493258  0.000000
  0.000000  0.000000  0.000000


  3.091656  -0.343078  0.000000
  -0.343078  -0.762435  0.000000
  0.000000  0.000000  0.000000


  5.295617  -0.811351  0.000000
  -0.811351  -1.419744  0.000000
  0.000000  0.000000  0.000000


  3.031162  -0.617020  0.000000
  -0.617020  -1.509383  0.000000
  0.000000  0.000000  0.000000


  7.343648  -0.968750  0.000000
  -0.968750  -1.396945  0.000000
  0.000000  0.000000  0.000000


  5.381941  -0.471514  0.000000
  -0.471514  -0.658752  0.000000
  0.000000  0.000000  0.000000


  7.469725  -0.864622  0.000000
  -0.864622  -1.352054  0.000000
  0.000000  0.000000  0.000000


  7.517867  -0.648212  0.000000
  -0.648212  -0.545124  0.000000
  0.000000  0.000000  0.000000


  5.680920  -0.404882  0.000000
  -0.404882  -0.688138  0.000000
  0.000000  0.000000  0.000000


  3.271530  -0.305396  0.000000
  -0.305396  -0.706794  0.000000
  0.000000  0.000000  0.000000


  9.665775  -1.174888  0.000000
  -1.174888  -1.262651  0.000000
  0.000000  0.000000  0.000000


  9.705394  -0.989925  0.000000
  -0.989925  -0.570450  0.000000
  0.000000  0.000000  0.000000


  11.812969  -1.500361  0.000000
  -1.500361  -1.172326  0.000000
  0.000000  0.000000  0.000000


  12.514801  -1.284146  0.000000
  -1.284146  -1.079401  0.000000
  0.000000  0.000000  0.000000


  12.094837  -0.993675  0.000000
  -0.993675  -0.436140  0.000000
  0.000000  0.000000  0.000000


  8.010193  -0.864679  0.000000
  -0.864679  -1.399490  0.000000
  0.000000  0.000000  0.000000


  13.836201  -1.733848  0.000000
  -1.733848  -1.071929  0.000000
  0.000000  0.000000  0.000000


  14.583809  -1.509614  0.000000
  -1.509614  -1.039270  0.000000
  0.000000  0.000000  0.000000


  -1.749265  -0.026011  0.000000
  -0.026011  -1.041453  0.000000
  0.000000  0.000000  0.000000


  -1.783859  -0.195736  0.000000
  -0.195736  -1.730888  0.000000
  0.000000  0.000000  0.000000


  -4.030152  0.296859  0.000000
  0.296859  -1.039631  0.000000
  0.000000  0.000000  0.000000


  -4.167460  0.290396  0.000000
  0.290396  -1.103887  0.000000
  0.000000  0.000000  0.000000


  -4.220219  0.066677  0.000000
  0.066677  -1.755522  0.000000
  0.000000  0.000000  0.000000


  -6.471290  0.573462  0.000000
  0.573462  -1.061058  0.000000
  0.000000  0.000000  0.000000


  -6.620233  0.408446  0.000000
  0.408446  -0.849768  0.000000
  0.000000  0.000000  0.000000


  -1.721994  -0.262536  0.000000
  -0.262536  -1.694180  0.000000
  0.000000  0.000000  0.000000


  -4.110128  -0.008605  0.000000
  -0.008605  -1.721882  0.000000
  0.000000  0.000000  0.000000


  -6.304674  0.520322  0.000000
  0.520322  -1.014603  0.000000
  0.000000  0.000000  0.000000


  -3.941146  -0.065529  0.000000
  -0.065529  -1.672321  0.000000
  0.000000  0.000000  0.000000


  -6.385470  0.212958  0.000000
  0.212958  -1.705151  0.000000
  0.000000  0.000000  0.000000


  -6.557274  0.256158  0.000000
  0.256158  -1.719325  0.000000
  0.000000  0.000000  0.000000


  0.786541  -0.175556  0.000000
  -0.175556  -0.858330  0.000000
  0.000000  0.000000  0.000000


  0.728651  -0.434854  0.000000
  -0.434854  -1.579366  0.000000
  0.000000  0.000000  0.000000


  2.891090  -0.678449  0.000000
  -0.678449  -1.569242  0.000000
  0.000000  0.000000  0.000000


  -1.419509  0.056092  0.000000
  0.056092  -0.853151  0.000000
  0.000000  0.000000  0.000000


  -1.518688  -0.019349  0.000000
  -0.019349  -0.905032  0.000000
  0.000000  0.000000  0.000000


  0.618835  -0.449286  0.000000
  -0.449286  -1.669988  0.000000
  0.000000  0.000000  0.000000


  -1.650466  0.009712  0.000000
  0.009712  -0.960960  0.000000
  0.000000  0.000000  0.000000


  0.860006  -0.443165  0.000000
  -0.443165  -1.502691  0.000000
  0.000000  0.000000  0.000000


  -1.490797  -0.241425  0.000000
  -0.241425  -1.567736  0.000000
  0.000000  0.000000  0.000000


  -1.561038  -0.247950  0.000000
  -0.247950  -1.663223  0.000000
  0.000000  0.000000  0.000000


  -3.765961  0.235595  0.000000
  0.235595  -0.907757  0.000000
  0.000000  0.000000  0.000000


  -3.795942  0.045494  0.000000
  0.045494  -1.634846  0.000000
  0.000000  0.000000  0.000000


  -3.839199  0.288777  0.000000
  0.288777  -0.987984  0.000000
  0.000000  0.000000  0.000000


  -6.103981  0.389806  0.000000
  0.389806  -0.872546  0.000000
  0.000000  0.000000  0.000000


  -6.179669  0.427457  0.000000
  0.427457  -0.998280  0.000000
  0.000000  0.000000  0.000000


  -6.222858  0.223426  0.000000
  0.223426  -1.621409  0.000000
  0.000000  0.000000  0.000000


  -8.472135  0.711541  0.000000
  0.711541  -0.936845  0.000000
  0.000000  0.000000  0.000000


  -8.658426  0.680945  0.000000
  0.680945  -1.020467  0.000000
  0.000000  0.000000  0.000000


  -8.715695  0.440599  0.000000
  0.440599  -1.638688  0.000000
  0.000000  0.000000  0.000000


  -10.987026  0.966831  0.000000
  0.966831  -0.949668  0.000000
  0.000000  0.000000  0.000000


  -11.185634  0.919128  0.000000
  0.919128  -0.971492  0.000000
  0.000000  0.000000  0.000000


  -6.146739  0.145035  0.000000
  0.145035  -1.610399  0.000000
  0.000000  0.000000  0.000000


  -8.403772  0.645469  0.000000
  0.645469  -0.820478  0.000000
  0.000000  0.000000  0.000000


  -6.037267  0.080110  0.000000
  0.080110  -1.479469  0.000000
  0.000000  0.000000  0.000000


  -8.449846  0.392822  0.000000
  0.392822  -1.525653  0.000000
  0.000000  0.000000  0.000000


  -8.577406  0.326111  0.000000
  0.326111  -1.594740  0.000000
  0.000000  0.000000  0.000000


  -10.903730  0.838228  0.000000
  0.838228  -0.895571  0.000000
  0.000000  0.000000  0.000000


  -10.952242  0.594180  0.000000
  0.594180  -1.490739  0.000000
  0.000000  0.000000  0.000000


  -13.316585  1.038185  0.000000
  1.038185  -0.770692  0.000000
  0.000000  0.000000  0.000000


  -13.491699  0.989261  0.000000
  0.989261  -0.815537  0.000000
  0.000000  0.000000  0.000000


  -5.911937  0.504376  0.000000
  0.504376  -0.819095  0.000000
  0.000000  0.000000  0.000000


  -10.843331  0.450971  0.000000
  0.450971  -1.431363  0.000000
  0.000000  0.000000  0.000000


  -13.491149  0.959854  0.000000
  0.959854  -1.526868  0.000000
  0.000000  0.000000  0.000000


  -11.206975  0.789720  0.000000
  0.789720  -1.681709  0.000000
  0.000000  0.000000  0.000000


  -8.168013  0.645913  0.000000
  0.645913  -0.726236  0.000000
  0.000000  0.000000  0.000000


  -11.052241  0.714389  0.000000
  0.714389  -1.643554  0.000000
  0.000000  0.000000  0.000000


  -13.582380  1.191679  0.000000
  1.191679  -0.928901  0.000000
  0.000000  0.000000  0.000000


  -13.683985  0.882105  0.000000
  0.882105  -1.503170  0.000000
  0.000000  0.000000  0.000000


  -16.073770  1.434668  0.000000
  1.434668  -0.918402  0.000000
  0.000000  0.000000  0.000000


  -16.148558  1.144474  0.000000
  1.144474  -1.360177  0.000000
  0.000000  0.000000  0.000000


  -18.591894  1.684169  0.000000
  1.684169  -0.714507  0.000000
  0.000000  0.000000  0.000000


  -18.705105  1.604752  0.000000
  1.604752  -0.738400  0.000000
  0.000000  0.000000  0.000000


  -16.228988  1.622849  0.000000
  1.622849  -0.927702  0.000000
  0.000000  0.000000  0.000000


  -16.029615  0.864231  0.000000
  0.864231  -1.315597  0.000000
  0.000000  0.000000  0.000000


  -18.712866  1.314004  0.000000
  1.314004  -1.212249  0.000000
  0.000000  0.000000  0.000000


  -18.724364  1.480203  0.000000
  1.480203  -1.344756  0.000000
  0.000000  0.000000  0.000000


  -16.320021  1.320822  0.000000
  1.320822  -1.553241  0.000000
  0.000000  0.000000  0.000000


  -18.796301  1.554717  0.000000
  1.554717  -0.427612  0.000000
  0.000000  0.000000  0.000000


  -10.751546  0.795861  0.000000
  0.795861  -0.740134  0.000000
  0.000000  0.000000  0.000000


  -8.262404  0.285149  0.000000
  0.285149  -1.452055  0.000000
  0.000000  0.000000  0.000000


  -10.594834  0.800336  0.000000
  0.800336  -0.556806  0.000000
  0.000000  0.000000  0.000000


  -8.812622  0.550330  0.000000
  0.550330  -1.744322  0.000000
  0.000000  0.000000  0.000000


  -11.273800  1.015217  0.000000
  1.015217  -0.989173  0.000000
  0.000000  0.000000  0.000000


  -8.764238  0.758048  0.000000
  0.758048  -1.025785  0.000000
  0.000000  0.000000  0.000000


  -11.322512  0.803433  0.000000
  0.803433  -1.707894  0.000000
  0.000000  0.000000  0.000000


  -8.865428  0.650383  0.000000
  0.650383  -1.756340  0.000000
  0.000000  0.000000  0.000000


  -13.707910  1.282980  0.000000
  1.282980  -0.997904  0.000000
  0.000000  0.000000  0.000000


  -13.754566  1.071453  0.000000
  1.071453  -1.654450  0.000000
  0.000000  0.000000  0.000000


  -13.829754  1.242171  0.000000
  1.242171  -0.809899  0.000000
  0.000000  0.000000  0.000000


  -13.371669  0.791149  0.000000
  0.791149  -1.498202  0.000000
  0.000000  0.000000  0.000000


  -15.763584  1.045391  0.000000
  1.045391  -0.613051  0.000000
  0.000000  0.000000  0.000000


  -15.869330  1.300818  0.000000
  1.300818  -0.710894  0.000000
  0.000000  0.000000  0.000000


  -13.318021  0.727214  0.000000
  0.727214  -1.328157  0.000000
  0.000000  0.000000  0.000000


  -15.762662  1.056310  0.000000
  1.056310  -1.326048  0.000000
  0.000000  0.000000  0.000000


  -13.288505  0.928600  0.000000
  0.928600  -0.690863  0.000000
  0.000000  0.000000  0.000000


  -15.747736  1.167755  0.000000
  1.167755  -0.326617  0.000000
  0.000000  0.000000  0.000000


  -18.513845  1.095995  0.000000
  1.095995  -0.487869  0.000000
  0.000000  0.000000  0.000000


  -18.487414  1.369013  0.000000
  1.369013  -0.719142  0.000000
  0.000000  0.000000  0.000000


  -18.528447  1.171248  0.000000
  1.171248  -1.044631  0.000000
  0.000000  0.000000  0.000000


  -21.623245  1.658062  0.000000
  1.658062  -0.571478  0.000000
  0.000000  0.000000  0.000000


  -21.773435  1.509206  0.000000
  1.509206  -0.578172  0.000000
  0.000000  0.000000  0.000000


  -21.761804  1.601099  0.000000
  1.601099  -0.952914  0.000000
  0.000000  0.000000  0.000000


  -18.516782  1.036006  0.000000
  1.036006  -1.096228  0.000000
  0.000000  0.000000  0.000000


  -21.350843  1.586038  0.000000
  1.586038  -0.429249  0.000000
  0.000000  0.000000  0.000000


  -18.036125  0.727172  0.000000
  0.727172  -1.375548  0.000000
  0.000000  0.000000  0.000000


  -21.758805  0.903372  0.000000
  0.903372  -0.616305  0.000000
  0.000000  0.000000  0.000000


  -21.763649  1.158238  0.000000
  1.158238  -0.829233  0.000000
  0.000000  0.000000  0.000000


  -3.730200  -0.037580  0.000000
  -0.037580  -1.515262  0.000000
  0.000000  0.000000  0.000000


  -3.672799  0.213146  0.000000
  0.213146  -0.859868  0.000000
  0.000000  0.000000  0.000000


  -1.311589  -0.165206  0.000000
  -0.165206  -1.508223  0.000000
  0.000000  0.000000  0.000000


  -1.272863  0.061037  0.000000
  0.061037  -0.773762  0.000000
  0.000000  0.000000  0.000000


  -3.586188  0.154080  0.000000
  0.154080  -0.701053  0.000000
  0.000000  0.000000  0.000000


  -8.179267  0.215065  0.000000
  0.215065  -1.017781  0.000000
  0.000000  0.000000  0.000000


  -1.315624  -0.130407  0.000000
  -0.130407  -1.407786  0.000000
  0.000000  0.000000  0.000000


  -3.615631  -0.059397  0.000000
  -0.059397  -1.455200  0.000000
  0.000000  0.000000  0.000000


  -5.835300  0.405141  0.000000
  0.405141  -0.667131  0.000000
  0.000000  0.000000  0.000000


  -3.554986  -0.098394  0.000000
  -0.098394  -1.352259  0.000000
  0.000000  0.000000  0.000000


  -5.886904  0.090228  0.000000
  0.090228  -1.322383  0.000000
  0.000000  0.000000  0.000000


  -8.100496  0.581261  0.000000
  0.581261  -0.566830  0.000000
  0.000000  0.000000  0.000000


  -3.459955  0.249279  0.000000
  0.249279  -0.578884  0.000000
  0.000000  0.000000  0.000000


  -1.156746  -0.176946  0.000000
  -0.176946  -1.241447  0.000000
  0.000000  0.000000  0.000000


  -1.076758  0.136109  0.000000
  0.136109  -0.528114  0.000000
  0.000000  0.000000  0.000000


  -3.158965  0.198982  0.000000
  0.198982  -0.460456  0.000000
  0.000000  0.000000  0.000000


  -5.669380  -0.006252  0.000000
  -0.006252  -1.352646  0.000000
  0.000000  0.000000  0.000000


  -5.433039  0.576455  0.000000
  0.576455  -0.534910  0.000000
  0.000000  0.000000  0.000000


  -3.368073  -0.327539  0.000000
  -0.327539  -1.054878  0.000000
  0.000000  0.000000  0.000000


  -3.826424  0.762998  0.000000
  0.762998  -0.762521  0.000000
  0.000000  0.000000  0.000000


  -1.430471  0.261195  0.000000
  0.261195  -1.048799  0.000000
  0.000000  0.000000  0.000000


  1.208393  -0.418279  0.000000
  -0.418279  -1.083109  0.000000
  0.000000  0.000000  0.000000


  0.963595  -0.446031  0.000000
  -0.446031  -1.261148  0.000000
  0.000000  0.000000  0.000000


  -0.884496  0.030167  0.000000
  0.030167  -1.096539  0.000000
  0.000000  0.000000  0.000000


  1.278572  -0.140910  0.000000
  -0.140910  -0.517827  0.000000
  0.000000  0.000000  0.000000


  -0.865534  0.166129  0.000000
  0.166129  -0.287166  0.000000
  0.000000  0.000000  0.000000


  -1.282003  0.098109  0.000000
  0.098109  -0.641713  0.000000
  0.000000  0.000000  0.000000


  0.973542  -0.350685  0.000000
  -0.350685  -1.423783  0.000000
  0.000000  0.000000  0.000000


  0.983894  -0.164924  0.000000
  -0.164924  -0.671219  0.000000
  0.000000  0.000000  0.000000


  3.193751  -0.619077  0.000000
  -0.619077  -1.411348  0.000000
  0.000000  0.000000  0.000000


  0.935392  -0.137309  0.000000
  -0.137309  -0.769646  0.000000
  0.000000  0.000000  0.000000


  -21.722796  1.663695  0.000000
  1.663695  -0.591731  0.000000
  0.000000  0.000000  0.000000


  -10.653813  0.480413  0.000000
  0.480413  -1.485330  0.000000
  0.000000  0.000000  0.000000


  1.101750  0.034036  0.000000
  0.034036  -0.619931  0.000000
  0.000000  0.000000  0.000000


  11.359769  -1.443519  0.000000
  -1.443519  -1.240779  0.000000
  0.000000  0.000000  0.000000


  -3.247618  -0.331369  0.000000
  -0.331369  -0.410381  0.000000
  0.000000  0.000000  0.000000


  -1.169051  -0.470099  0.000000
  -0.470099  -0.015366  0.000000
  0.000000  0.000000  0.000000


  10.068764  -1.355803  0.000000
  -1.355803  -1.058080  0.000000
  0.000000  0.000000  0.000000


  5.569261  -0.850592  0.000000
  -0.850592  -1.294618  0.000000
  0.000000  0.000000  0.000000


  3.192525  -0.367337  0.000000
  -0.367337  -0.530231  0.000000
  0.000000  0.000000  0.000000


  3.186502  -0.455389  0.000000
  -0.455389  -1.293075  0.000000
  0.000000  0.000000  0.000000


  -21.645221  1.973718  0.000000
  1.973718  -0.543977  0.000000
  0.000000  0.000000  0.000000


  -0.013253  0.177998  0.000000
  0.177998  1.540788  0.000000
  0.000000  0.000000  0.000000


  -0.129747  0.399093  0.000000
  0.399093  1.559614  0.000000
  0.000000  0.000000  0.000000


  -0.053682  0.466657  0.000000
  0.466657  1.141939  0.000000
  0.000000  0.000000  0.000000


  -1.610845  0.182324  0.000000
  0.182324  1.608905  0.000000
  0.000000  0.000000  0.000000


  11.459417  -7.328498  0.000000
  -7.328498  4.633676  0.000000
  0.000000  0.000000  0.000000


  11.094210  -7.765825  0.000000
  -7.765825  4.270249  0.000000
  0.000000  0.000000  0.000000


  2.799265  -4.694434  0.000000
  -4.694434  7.711819  0.000000
  0.000000  0.000000  0.000000


  2.287130  -4.809009  0.000000
  -4.809009  7.780957  0.000000
  0.000000  0.000000  0.000000


  -3.357884  1.744184  0.000000
  1.744184  -1.399113  0.000000
  0.000000  0.000000  0.000000


  -2.885085  0.679706  0.000000
  0.679706  -0.849252  0.000000
  0.000000  0.000000  0.000000


  14.501481  -6.852445  0.000000
  -6.852445  3.268697  0.000000
  0.000000  0.000000  0.000000


  13.494764  -7.477608  0.000000
  -7.477608  3.213244  0.000000
  0.000000  0.000000  0.000000


  14.309980  -6.699172  0.000000
  -6.699172  2.556126  0.000000
  0.000000  0.000000  0.000000


  9.866899  -7.460161  0.000000
  -7.460161  5.639756  0.000000
  0.000000  0.000000  0.000000


  9.563240  -7.813941  0.000000
  -7.813941  5.238993  0.000000
  0.000000  0.000000  0.000000


  6.223644  -6.282806  0.000000
  -6.282806  4.226231  0.000000
  0.000000  0.000000  0.000000


  -0.035636  0.306920  0.000000
  0.306920  0.570262  0.000000
  0.000000  0.000000  0.000000


  -0.291303  0.655718  0.000000
  0.655718  0.526737  0.000000
  0.000000  0.000000  0.000000


  -0.093662  0.493403  0.000000
  0.493403  0.527372  0.000000
  0.000000  0.000000  0.000000


  -0.301773  0.595998  0.000000
  0.595998  0.364560  0.000000
  0.000000  0.000000  0.000000


  -1.630985  1.634422  0.000000
  1.634422  -1.278620  0.000000
  0.000000  0.000000  0.000000


  16.372253  -5.348462  0.000000
  -5.348462  1.712396  0.000000
  0.000000  0.000000  0.000000


  16.390026  -5.443019  0.000000
  -5.443019  0.955599  0.000000
  0.000000  0.000000  0.000000


  14.219924  -5.477503  0.000000
  -5.477503  1.770669  0.000000
  0.000000  0.000000  0.000000


  2.339068  -3.521370  0.000000
  -3.521370  1.751999  0.000000
  0.000000  0.000000  0.000000


  11.305504  -7.498488  0.000000
  -7.498488  4.872080  0.000000
  0.000000  0.000000  0.000000


  10.972488  -7.906846  0.000000
  -7.906846  4.464835  0.000000
  0.000000  0.000000  0.000000


  9.839030  -6.629998  0.000000
  -6.629998  3.458222  0.000000
  0.000000  0.000000  0.000000


  8.536717  -6.429347  0.000000
  -6.429347  4.164173  0.000000
  0.000000  0.000000  0.000000


  1.231493  -3.021414  0.000000
  -3.021414  7.078021  0.000000
  0.000000  0.000000  0.000000


  -0.468622  -0.514064  0.000000
  -0.514064  4.430381  0.000000
  0.000000  0.000000  0.000000


  -6.294611  5.008365  0.000000
  5.008365  -5.597225  0.000000
  0.000000  0.000000  0.000000


  -0.904287  1.566282  0.000000
  1.566282  -2.401454  0.000000
  0.000000  0.000000  0.000000


  13.304047  -7.078154  0.000000
  -7.078154  3.737804  0.000000
  0.000000  0.000000  0.000000


  12.973648  -7.515336  0.000000
  -7.515336  3.271090  0.000000
  0.000000  0.000000  0.000000


  11.978631  -6.485092  0.000000
  -6.485092  3.310694  0.000000
  0.000000  0.000000  0.000000


  13.207826  -7.481761  0.000000
  -7.481761  3.153738  0.000000
  0.000000  0.000000  0.000000


  12.043071  -6.269475  0.000000
  -6.269475  3.230111  0.000000
  0.000000  0.000000  0.000000


  11.663694  -6.920363  0.000000
  -6.920363  2.779551  0.000000
  0.000000  0.000000  0.000000


  13.536620  -7.366814  0.000000
  -7.366814  2.737703  0.000000
  0.000000  0.000000  0.000000


  11.586714  -6.833531  0.000000
  -6.833531  2.752392  0.000000
  0.000000  0.000000  0.000000


  10.132878  -5.673735  0.000000
  -5.673735  2.847079  0.000000
  0.000000  0.000000  0.000000


  10.004649  -6.021929  0.000000
  -6.021929  2.088978  0.000000
  0.000000  0.000000  0.000000


  10.407984  -5.977627  0.000000
  -5.977627  3.003365  0.000000
  0.000000  0.000000  0.000000


  10.877386  -5.716834  0.000000
  -5.716834  2.279743  0.000000
  0.000000  0.000000  0.000000


  15.059991  -0.648571  0.000000
  -0.648571  -0.804749  0.000000
  0.000000  0.000000  0.000000


  -4.174592  2.592389  0.000000
  2.592389  -2.322291  0.000000
  0.000000  0.000000  0.000000


  -1.056688  -0.738581  0.000000
  -0.738581  1.464477  0.000000
  0.000000  0.000000  0.000000


  -0.658954  -1.652900  0.000000
  -1.652900  1.991673  0.000000
  0.000000  0.000000  0.000000


  -0.637346  -1.527675  0.000000
  -1.527675  1.863660  0.000000
  0.000000  0.000000  0.000000


  -0.261017  1.435496  0.000000
  1.435496  0.056198  0.000000
  0.000000  0.000000  0.000000


  19.025318  -1.657624  0.000000
  -1.657624  0.380946  0.000000
  0.000000  0.000000  0.000000


  -2.633964  1.766043  0.000000
  1.766043  -0.916863  0.000000
  0.000000  0.000000  0.000000


  -0.481929  -1.717494  0.000000
  -1.717494  2.509795  0.000000
  0.000000  0.000000  0.000000


  -10.048788  7.803992  0.000000
  7.803992  -6.759493  0.000000
  0.000000  0.000000  0.000000


  -1.687856  0.596990  0.000000
  0.596990  -0.314988  0.000000
  0.000000  0.000000  0.000000


  -0.988516  -0.188246  0.000000
  -0.188246  3.322097  0.000000
  0.000000  0.000000  0.000000


  -0.183352  -1.714201  0.000000
  -1.714201  3.851106  0.000000
  0.000000  0.000000  0.000000


  -2.041977  -0.165247  0.000000
  -0.165247  -0.027206  0.000000
  0.000000  0.000000  0.000000


  -0.927030  -1.100086  0.000000
  -1.100086  1.783133  0.000000
  0.000000  0.000000  0.000000


  1.469047  -3.526535  0.000000
  -3.526535  6.755555  0.000000
  0.000000  0.000000  0.000000


  -0.290226  -0.820985  0.000000
  -0.820985  4.946666  0.000000
  0.000000  0.000000  0.000000


  4.910068  -1.003117  0.000000
  -1.003117  -0.428594  0.000000
  0.000000  0.000000  0.000000


  0.102291  -0.558938  0.000000
  -0.558938  4.143753  0.000000
  0.000000  0.000000  0.000000


  -1.431136  -0.342977  0.000000
  -0.342977  0.056202  0.000000
  0.000000  0.000000  0.000000


  2.173622  -4.045225  0.000000
  -4.045225  7.577313  0.000000
  0.000000  0.000000  0.000000


  -8.917501  7.617231  0.000000
  7.617231  -7.612885  0.000000
  0.000000  0.000000  0.000000


  -0.473815  1.411210  0.000000
  1.411210  -1.016359  0.000000
  0.000000  0.000000  0.000000


  -0.614456  -1.515069  0.000000
  -1.515069  -0.012369  0.000000
  0.000000  0.000000  0.000000


  -0.053437  1.189513  0.000000
  1.189513  -0.171874  0.000000
  0.000000  0.000000  0.000000


  -9.611362  7.643131  0.000000
  7.643131  -7.219143  0.000000
  0.000000  0.000000  0.000000


  -11.476313  1.616967  0.000000
  1.616967  -1.273001  0.000000
  0.000000  0.000000  0.000000


  -1.038969  2.074621  0.000000
  2.074621  -5.263618  0.000000
  0.000000  0.000000  0.000000


  -0.407530  -0.442219  0.000000
  -0.442219  3.663629  0.000000
  0.000000  0.000000  0.000000


  -12.710129  6.795319  0.000000
  6.795319  -5.304196  0.000000
  0.000000  0.000000  0.000000


  10.791856  -7.443087  0.000000
  -7.443087  5.426283  0.000000
  0.000000  0.000000  0.000000


  -0.860043  -0.213403  0.000000
  -0.213403  3.573489  0.000000
  0.000000  0.000000  0.000000


  4.228729  -5.617272  0.000000
  -5.617272  7.798041  0.000000
  0.000000  0.000000  0.000000


  -0.469138  1.584247  0.000000
  1.584247  -0.229294  0.000000
  0.000000  0.000000  0.000000


  -0.472735  1.463429  0.000000
  1.463429  -0.311328  0.000000
  0.000000  0.000000  0.000000


  8.396871  -7.184295  0.000000
  -7.184295  6.537922  0.000000
  0.000000  0.000000  0.000000


  1.230813  -2.993921  0.000000
  -2.993921  7.060680  0.000000
  0.000000  0.000000  0.000000


  7.488702  -2.395454  0.000000
  -2.395454  -0.104893  0.000000
  0.000000  0.000000  0.000000


  -1.656851  0.064505  0.000000
  0.064505  0.501471  0.000000
  0.000000  0.000000  0.000000


  -6.783068  0.929433  0.000000
  0.929433  -1.249600  0.000000
  0.000000  0.000000  0.000000


  -4.652890  -0.067288  0.000000
  -0.067288  -2.020605  0.000000
  0.000000  0.000000  0.000000


  -0.570030  1.285985  0.000000
  1.285985  0.064232  0.000000
  0.000000  0.000000  0.000000


  5.477940  -6.199911  0.000000
  -6.199911  7.068814  0.000000
  0.000000  0.000000  0.000000


  8.354547  -7.188784  0.000000
  -7.188784  6.219791  0.000000
  0.000000  0.000000  0.000000


  -0.737389  -0.055822  0.000000
  -0.055822  2.897993  0.000000
  0.000000  0.000000  0.000000


  1.694962  -3.563122  0.000000
  -3.563122  6.822988  0.000000
  0.000000  0.000000  0.000000


  1.383563  -3.869523  0.000000
  -3.869523  7.626012  0.000000
  0.000000  0.000000  0.000000


  -8.677509  4.859616  0.000000
  4.859616  -4.290417  0.000000
  0.000000  0.000000  0.000000


  -0.389913  1.121173  0.000000
  1.121173  -1.496118  0.000000
  0.000000  0.000000  0.000000


  -9.529555  1.151398  0.000000
  1.151398  -1.081072  0.000000
  0.000000  0.000000  0.000000


  0.304630  -1.139587  0.000000
  -1.139587  5.193360  0.000000
  0.000000  0.000000  0.000000


  -2.879108  0.817440  0.000000
  0.817440  -1.316459  0.000000
  0.000000  0.000000  0.000000


  15.720525  -6.174088  0.000000
  -6.174088  2.444095  0.000000
  0.000000  0.000000  0.000000


  -0.008953  -1.099308  0.000000
  -1.099308  4.716588  0.000000
  0.000000  0.000000  0.000000


  -0.506408  1.562214  0.000000
  1.562214  -0.695505  0.000000
  0.000000  0.000000  0.000000


  -1.290581  2.472642  0.000000
  2.472642  -5.960210  0.000000
  0.000000  0.000000  0.000000


  1.966560  -3.912289  0.000000
  -3.912289  4.149632  0.000000
  0.000000  0.000000  0.000000


  6.691543  -5.340324  0.000000
  -5.340324  3.667329  0.000000
  0.000000  0.000000  0.000000


  10.844181  -2.654375  0.000000
  -2.654375  -0.876510  0.000000
  0.000000  0.000000  0.000000


  4.440035  -1.510103  0.000000
  -1.510103  -1.670489  0.000000
  0.000000  0.000000  0.000000


  3.032898  -1.693585  0.000000
  -1.693585  -0.503826  0.000000
  0.000000  0.000000  0.000000


  4.414799  -0.971591  0.000000
  -0.971591  -1.022591  0.000000
  0.000000  0.000000  0.000000


  -1.148300  0.314223  0.000000
  0.314223  2.416100  0.000000
  0.000000  0.000000  0.000000


  -0.939016  0.425634  0.000000
  0.425634  1.887335  0.000000
  0.000000  0.000000  0.000000


  -1.147251  0.215145  0.000000
  0.215145  2.523858  0.000000
  0.000000  0.000000  0.000000


  -0.812236  0.196019  0.000000
  0.196019  2.474789  0.000000
  0.000000  0.000000  0.000000


  -3.562004  -0.094134  0.000000
  -0.094134  -0.936063  0.000000
  0.000000  0.000000  0.000000


  16.918769  -5.043757  0.000000
  -5.043757  1.745295  0.000000
  0.000000  0.000000  0.000000


  -10.004629  4.667684  0.000000
  4.667684  -3.674079  0.000000
  0.000000  0.000000  0.000000


  -5.140324  3.587233  0.000000
  3.587233  -3.378116  0.000000
  0.000000  0.000000  0.000000


  18.807191  -2.131805  0.000000
  -2.131805  0.495093  0.000000
  0.000000  0.000000  0.000000


  -2.706842  0.936096  0.000000
  0.936096  -0.476044  0.000000
  0.000000  0.000000  0.000000


  0.032445  0.201881  0.000000
  0.201881  1.101845  0.000000
  0.000000  0.000000  0.000000


  5.597516  -4.583800  0.000000
  -4.583800  3.077587  0.000000
  0.000000  0.000000  0.000000


  0.037685  -0.347343  0.000000
  -0.347343  3.742530  0.000000
  0.000000  0.000000  0.000000


  12.538400  -7.214863  0.000000
  -7.214863  4.446512  0.000000
  0.000000  0.000000  0.000000


  -2.127597  2.233575  0.000000
  2.233575  -2.885055  0.000000
  0.000000  0.000000  0.000000


  -1.850437  2.248270  0.000000
  2.248270  -2.895529  0.000000
  0.000000  0.000000  0.000000


  -2.087919  1.909898  0.000000
  1.909898  -1.969092  0.000000
  0.000000  0.000000  0.000000


  -1.792979  1.960821  0.000000
  1.960821  -1.963304  0.000000
  0.000000  0.000000  0.000000


  -1.986831  1.618768  0.000000
  1.618768  -1.266229  0.000000
  0.000000  0.000000  0.000000


  -2.014675  1.568283  0.000000
  1.568283  -1.139353  0.000000
  0.000000  0.000000  0.000000


  -1.726591  1.980421  0.000000
  1.980421  -2.076506  0.000000
  0.000000  0.000000  0.000000


  -1.684290  1.571256  0.000000
  1.571256  -1.161394  0.000000
  0.000000  0.000000  0.000000


  -1.854651  1.939069  0.000000
  1.939069  -1.893843  0.000000
  0.000000  0.000000  0.000000


  -1.930914  1.653642  0.000000
  1.653642  -1.368581  0.000000
  0.000000  0.000000  0.000000


  -1.678512  1.985416  0.000000
  1.985416  -2.188680  0.000000
  0.000000  0.000000  0.000000


  -2.055866  1.514285  0.000000
  1.514285  -1.039407  0.000000
  0.000000  0.000000  0.000000


  -2.115613  1.848380  0.000000
  1.848380  -1.925310  0.000000
  0.000000  0.000000  0.000000


  -1.942383  2.262206  0.000000
  2.262206  -2.796997  0.000000
  0.000000  0.000000  0.000000


  -2.204089  2.248236  0.000000
  2.248236  -2.778850  0.000000
  0.000000  0.000000  0.000000


  -1.988291  2.536143  0.000000
  2.536143  -3.686885  0.000000
  0.000000  0.000000  0.000000


  -2.307302  2.299974  0.000000
  2.299974  -2.666399  0.000000
  0.000000  0.000000  0.000000


  -2.303646  2.556401  0.000000
  2.556401  -3.655777  0.000000
  0.000000  0.000000  0.000000


  -2.102971  2.862559  0.000000
  2.862559  -4.543800  0.000000
  0.000000  0.000000  0.000000


  -1.949828  2.233236  0.000000
  2.233236  -2.696214  0.000000
  0.000000  0.000000  0.000000


  -2.223365  1.867568  0.000000
  1.867568  -1.738604  0.000000
  0.000000  0.000000  0.000000


  -1.883803  1.850712  0.000000
  1.850712  -1.755690  0.000000
  0.000000  0.000000  0.000000


  -2.133142  1.405060  0.000000
  1.405060  -0.969770  0.000000
  0.000000  0.000000  0.000000


  -2.009049  2.233428  0.000000
  2.233428  -2.535968  0.000000
  0.000000  0.000000  0.000000


  -1.662014  1.408437  0.000000
  1.408437  -0.993395  0.000000
  0.000000  0.000000  0.000000


  -1.664449  1.506322  0.000000
  1.506322  -1.445506  0.000000
  0.000000  0.000000  0.000000


  -2.114048  1.703206  0.000000
  1.703206  -0.754680  0.000000
  0.000000  0.000000  0.000000


  -1.942386  1.046604  0.000000
  1.046604  -0.133712  0.000000
  0.000000  0.000000  0.000000


  -2.257783  1.759487  0.000000
  1.759487  -1.473275  0.000000
  0.000000  0.000000  0.000000


  -2.295274  2.143988  0.000000
  2.143988  -2.563146  0.000000
  0.000000  0.000000  0.000000


  -1.915494  1.159229  0.000000
  1.159229  -0.131839  0.000000
  0.000000  0.000000  0.000000


  -1.607782  1.250340  0.000000
  1.250340  -0.109475  0.000000
  0.000000  0.000000  0.000000


  -2.122075  2.563347  0.000000
  2.563347  -3.553961  0.000000
  0.000000  0.000000  0.000000


  -2.369344  2.601932  0.000000
  2.601932  -3.514059  0.000000
  0.000000  0.000000  0.000000


  -2.123428  2.713962  0.000000
  2.713962  -4.332796  0.000000
  0.000000  0.000000  0.000000


  -2.391766  2.697513  0.000000
  2.697513  -3.430509  0.000000
  0.000000  0.000000  0.000000


  -2.569276  2.990691  0.000000
  2.990691  -4.247248  0.000000
  0.000000  0.000000  0.000000


  -2.375753  2.918302  0.000000
  2.918302  -4.501499  0.000000
  0.000000  0.000000  0.000000


  -2.311211  3.145613  0.000000
  3.145613  -5.101312  0.000000
  0.000000  0.000000  0.000000


  -2.181934  3.252746  0.000000
  3.252746  -5.428100  0.000000
  0.000000  0.000000  0.000000


  -1.759501  0.773747  0.000000
  0.773747  0.718808  0.000000
  0.000000  0.000000  0.000000


  -1.752679  0.689691  0.000000
  0.689691  0.609360  0.000000
  0.000000  0.000000  0.000000


  -2.102603  3.214751  0.000000
  3.214751  -5.633609  0.000000
  0.000000  0.000000  0.000000


  -2.752500  3.397701  0.000000
  3.397701  -5.028249  0.000000
  0.000000  0.000000  0.000000


  -1.709386  1.533804  0.000000
  1.533804  -1.065847  0.000000
  0.000000  0.000000  0.000000


  -2.700484  2.913267  0.000000
  2.913267  -4.022703  0.000000
  0.000000  0.000000  0.000000


  -0.104270  1.470051  0.000000
  1.470051  -0.020488  0.000000
  0.000000  0.000000  0.000000


  -0.606901  -1.099660  0.000000
  -1.099660  0.779583  0.000000
  0.000000  0.000000  0.000000


  -1.621563  1.700454  0.000000
  1.700454  -1.365648  0.000000
  0.000000  0.000000  0.000000


  0.681427  -1.956269  0.000000
  -1.956269  6.221938  0.000000
  0.000000  0.000000  0.000000


  -1.408811  0.111371  0.000000
  0.111371  1.855193  0.000000
  0.000000  0.000000  0.000000


  13.773399  -6.883707  0.000000
  -6.883707  3.723406  0.000000
  0.000000  0.000000  0.000000


  -4.721733  5.201368  0.000000
  5.201368  -7.469549  0.000000
  0.000000  0.000000  0.000000


  -0.130467  0.401013  0.000000
  0.401013  0.286392  0.000000
  0.000000  0.000000  0.000000


  -0.579489  0.825394  0.000000
  0.825394  0.325650  0.000000
  0.000000  0.000000  0.000000


  16.218259  -5.451939  0.000000
  -5.451939  2.031891  0.000000
  0.000000  0.000000  0.000000


  14.461725  -6.750037  0.000000
  -6.750037  3.362016  0.000000
  0.000000  0.000000  0.000000


  -0.255226  -0.831162  0.000000
  -0.831162  -1.778582  0.000000
  0.000000  0.000000  0.000000


  -2.192780  -0.033168  0.000000
  -0.033168  -1.922999  0.000000
  0.000000  0.000000  0.000000


  6.634196  -5.425835  0.000000
  -5.425835  2.150866  0.000000
  0.000000  0.000000  0.000000


  1.269712  -2.953459  0.000000
  -2.953459  4.027475  0.000000
  0.000000  0.000000  0.000000


  10.210078  -3.967958  0.000000
  -3.967958  -0.086911  0.000000
  0.000000  0.000000  0.000000


  10.184856  -6.349717  0.000000
  -6.349717  2.391376  0.000000
  0.000000  0.000000  0.000000


  1.712906  -3.999187  0.000000
  -3.999187  4.573445  0.000000
  0.000000  0.000000  0.000000


  8.410738  -3.077739  0.000000
  -3.077739  0.357037  0.000000
  0.000000  0.000000  0.000000


  8.208985  -5.138702  0.000000
  -5.138702  2.467896  0.000000
  0.000000  0.000000  0.000000


  8.213296  -3.470004  0.000000
  -3.470004  -0.312383  0.000000
  0.000000  0.000000  0.000000


  9.973280  -4.025714  0.000000
  -4.025714  -0.021677  0.000000
  0.000000  0.000000  0.000000


  8.210916  -3.160033  0.000000
  -3.160033  0.428859  0.000000
  0.000000  0.000000  0.000000


  10.191410  -3.606725  0.000000
  -3.606725  0.639098  0.000000
  0.000000  0.000000  0.000000


  8.043980  -3.516033  0.000000
  -3.516033  -0.270065  0.000000
  0.000000  0.000000  0.000000


  9.709803  -4.091266  0.000000
  -4.091266  0.057932  0.000000
  0.000000  0.000000  0.000000


  11.709051  -4.532847  0.000000
  -4.532847  0.269469  0.000000
  0.000000  0.000000  0.000000


  6.399308  -2.559204  0.000000
  -2.559204  0.114157  0.000000
  0.000000  0.000000  0.000000


  7.964253  -3.222971  0.000000
  -3.222971  0.477398  0.000000
  0.000000  0.000000  0.000000


  9.934494  -3.662126  0.000000
  -3.662126  0.725393  0.000000
  0.000000  0.000000  0.000000


  11.848650  -4.207226  0.000000
  -4.207226  1.006742  0.000000
  0.000000  0.000000  0.000000


  7.817725  -3.543629  0.000000
  -3.543629  -0.181142  0.000000
  0.000000  0.000000  0.000000


  9.407952  -4.196679  0.000000
  -4.196679  0.093408  0.000000
  0.000000  0.000000  0.000000


  7.832880  -3.117043  0.000000
  -3.117043  0.503528  0.000000
  0.000000  0.000000  0.000000


  6.337548  -1.594654  0.000000
  -1.594654  -0.512729  0.000000
  0.000000  0.000000  0.000000


  -7.354618  0.490669  0.000000
  0.490669  -1.754589  0.000000
  0.000000  0.000000  0.000000


  10.409602  -3.574514  0.000000
  -3.574514  0.572924  0.000000
  0.000000  0.000000  0.000000


  12.025465  -4.517351  0.000000
  -4.517351  0.194465  0.000000
  0.000000  0.000000  0.000000


  12.206840  -4.472980  0.000000
  -4.472980  0.153566  0.000000
  0.000000  0.000000  0.000000


  12.113506  -4.257865  0.000000
  -4.257865  0.955232  0.000000
  0.000000  0.000000  0.000000


  12.440479  -4.033733  0.000000
  -4.033733  0.808570  0.000000
  0.000000  0.000000  0.000000


  10.615304  -3.523378  0.000000
  -3.523378  0.534143  0.000000
  0.000000  0.000000  0.000000


  12.260907  -4.319970  0.000000
  -4.319970  0.118118  0.000000
  0.000000  0.000000  0.000000


  10.404767  -3.912645  0.000000
  -3.912645  -0.111395  0.000000
  0.000000  0.000000  0.000000


  12.743424  -3.641784  0.000000
  -3.641784  0.623658  0.000000
  0.000000  0.000000  0.000000


  14.589659  -4.502290  0.000000
  -4.502290  0.405460  0.000000
  0.000000  0.000000  0.000000


  14.728375  -4.992960  0.000000
  -4.992960  1.264898  0.000000
  0.000000  0.000000  0.000000


  14.748837  -4.765761  0.000000
  -4.765761  0.184562  0.000000
  0.000000  0.000000  0.000000


  12.999967  -3.876774  0.000000
  -3.876774  0.536269  0.000000
  0.000000  0.000000  0.000000


  16.757305  -5.637142  0.000000
  -5.637142  0.876283  0.000000
  0.000000  0.000000  0.000000


  19.439866  -0.725512  0.000000
  -0.725512  -0.747998  0.000000
  0.000000  0.000000  0.000000


  3.461311  -2.453774  0.000000
  -2.453774  -0.571319  0.000000
  0.000000  0.000000  0.000000


  1.824245  -1.441353  0.000000
  -1.441353  -0.281091  0.000000
  0.000000  0.000000  0.000000


  -3.787238  4.270050  0.000000
  4.270050  -5.560380  0.000000
  0.000000  0.000000  0.000000


  -3.328737  3.814346  0.000000
  3.814346  -5.903245  0.000000
  0.000000  0.000000  0.000000


  -3.310792  4.189355  0.000000
  4.189355  -6.642866  0.000000
  0.000000  0.000000  0.000000


  -3.755976  3.927414  0.000000
  3.927414  -4.825187  0.000000
  0.000000  0.000000  0.000000


  -3.274304  3.473169  0.000000
  3.473169  -5.195330  0.000000
  0.000000  0.000000  0.000000


  -3.681242  3.582819  0.000000
  3.582819  -4.150566  0.000000
  0.000000  0.000000  0.000000


  -3.966962  4.259240  0.000000
  4.259240  -5.334836  0.000000
  0.000000  0.000000  0.000000


  -3.500224  3.833221  0.000000
  3.833221  -5.703700  0.000000
  0.000000  0.000000  0.000000


  -3.529823  4.165831  0.000000
  4.165831  -6.481317  0.000000
  0.000000  0.000000  0.000000


  -4.014050  4.593461  0.000000
  4.593461  -6.074448  0.000000
  0.000000  0.000000  0.000000


  -3.570796  4.492499  0.000000
  4.492499  -7.200564  0.000000
  0.000000  0.000000  0.000000


  -4.257643  5.258784  0.000000
  5.258784  -7.364882  0.000000
  0.000000  0.000000  0.000000


  -4.075716  4.951477  0.000000
  4.951477  -6.808827  0.000000
  0.000000  0.000000  0.000000


  -3.412081  4.883226  0.000000
  4.883226  -8.231325  0.000000
  0.000000  0.000000  0.000000


  -3.772302  4.798423  0.000000
  4.798423  -7.827152  0.000000
  0.000000  0.000000  0.000000


  -3.604555  5.248876  0.000000
  5.248876  -8.601290  0.000000
  0.000000  0.000000  0.000000


  -3.706096  4.572414  0.000000
  4.572414  -6.304266  0.000000
  0.000000  0.000000  0.000000


  -4.184027  4.969330  0.000000
  4.969330  -6.621838  0.000000
  0.000000  0.000000  0.000000


  -3.738035  4.551587  0.000000
  4.551587  -6.982182  0.000000
  0.000000  0.000000  0.000000


  -4.208662  4.650468  0.000000
  4.650468  -5.851461  0.000000
  0.000000  0.000000  0.000000


  -3.744178  4.224928  0.000000
  4.224928  -6.239386  0.000000
  0.000000  0.000000  0.000000


  -4.506173  5.389650  0.000000
  5.389650  -7.132210  0.000000
  0.000000  0.000000  0.000000


  -4.319090  4.268488  0.000000
  4.268488  -5.041307  0.000000
  0.000000  0.000000  0.000000


  -4.407057  5.003858  0.000000
  5.003858  -6.375373  0.000000
  0.000000  0.000000  0.000000


  -4.004009  4.912177  0.000000
  4.912177  -7.453826  0.000000
  0.000000  0.000000  0.000000


  -4.848389  5.623156  0.000000
  5.623156  -7.577865  0.000000
  0.000000  0.000000  0.000000


  -3.404901  3.356391  0.000000
  3.356391  -4.852375  0.000000
  0.000000  0.000000  0.000000


  -3.811600  4.431922  0.000000
  4.431922  -6.704301  0.000000
  0.000000  0.000000  0.000000


  -4.178660  5.285904  0.000000
  5.285904  -8.143024  0.000000
  0.000000  0.000000  0.000000


  -4.111941  5.254977  0.000000
  5.254977  -8.304987  0.000000
  0.000000  0.000000  0.000000


  -3.573994  3.425639  0.000000
  3.425639  -5.016846  0.000000
  0.000000  0.000000  0.000000


  -4.091245  6.008547  0.000000
  6.008547  -9.233496  0.000000
  0.000000  0.000000  0.000000


  -4.457879  5.706458  0.000000
  5.706458  -8.026942  0.000000
  0.000000  0.000000  0.000000


  -3.280694  4.408157  0.000000
  4.408157  -7.519092  0.000000
  0.000000  0.000000  0.000000


  -3.844039  3.427274  0.000000
  3.427274  -3.840293  0.000000
  0.000000  0.000000  0.000000


  -3.802624  4.948913  0.000000
  4.948913  -7.636911  0.000000
  0.000000  0.000000  0.000000


  -3.727635  4.815754  0.000000
  4.815754  -7.018506  0.000000
  0.000000  0.000000  0.000000


  -3.440465  4.705647  0.000000
  4.705647  -7.836156  0.000000
  0.000000  0.000000  0.000000


  -3.057836  4.097082  0.000000
  4.097082  -6.861348  0.000000
  0.000000  0.000000  0.000000


  -3.426762  4.432385  0.000000
  4.432385  -6.442329  0.000000
  0.000000  0.000000  0.000000


  -3.532680  4.191871  0.000000
  4.191871  -5.743960  0.000000
  0.000000  0.000000  0.000000


  -3.039860  4.247975  0.000000
  4.247975  -7.640934  0.000000
  0.000000  0.000000  0.000000


  -2.904066  3.718707  0.000000
  3.718707  -6.284391  0.000000
  0.000000  0.000000  0.000000


  -3.606585  5.194123  0.000000
  5.194123  -7.851690  0.000000
  0.000000  0.000000  0.000000


  -3.486379  4.643191  0.000000
  4.643191  -7.083943  0.000000
  0.000000  0.000000  0.000000


  -3.306773  4.086276  0.000000
  4.086276  -5.834224  0.000000
  0.000000  0.000000  0.000000


  -2.992123  4.549908  0.000000
  4.549908  -8.231821  0.000000
  0.000000  0.000000  0.000000


  -2.854004  3.981075  0.000000
  3.981075  -6.939594  0.000000
  0.000000  0.000000  0.000000


  -3.207792  4.294411  0.000000
  4.294411  -6.500363  0.000000
  0.000000  0.000000  0.000000


  -2.787230  4.140170  0.000000
  4.140170  -7.679414  0.000000
  0.000000  0.000000  0.000000


  -2.691552  3.629197  0.000000
  3.629197  -6.353753  0.000000
  0.000000  0.000000  0.000000


  -3.290095  4.815892  0.000000
  4.815892  -7.828626  0.000000
  0.000000  0.000000  0.000000


  -3.174423  4.462745  0.000000
  4.462745  -7.104740  0.000000
  0.000000  0.000000  0.000000


  -3.051511  3.956088  0.000000
  3.956088  -5.944211  0.000000
  0.000000  0.000000  0.000000


  -2.571551  4.404814  0.000000
  4.404814  -8.355211  0.000000
  0.000000  0.000000  0.000000


  -2.590106  3.882990  0.000000
  3.882990  -6.978754  0.000000
  0.000000  0.000000  0.000000


  -2.555340  3.246130  0.000000
  3.246130  -5.787011  0.000000
  0.000000  0.000000  0.000000


  -2.939561  4.142831  0.000000
  4.142831  -6.315578  0.000000
  0.000000  0.000000  0.000000


  -2.947516  3.475370  0.000000
  3.475370  -4.754750  0.000000
  0.000000  0.000000  0.000000


  -2.969075  3.398287  0.000000
  3.398287  -4.625967  0.000000
  0.000000  0.000000  0.000000


  -2.459741  3.981652  0.000000
  3.981652  -7.620352  0.000000
  0.000000  0.000000  0.000000


  -2.575379  3.272659  0.000000
  3.272659  -6.119323  0.000000
  0.000000  0.000000  0.000000


  -2.484058  2.813209  0.000000
  2.813209  -4.497431  0.000000
  0.000000  0.000000  0.000000


  -2.603014  3.081329  0.000000
  3.081329  -5.113910  0.000000
  0.000000  0.000000  0.000000


  -3.009770  4.510112  0.000000
  4.510112  -7.735146  0.000000
  0.000000  0.000000  0.000000


  -2.645332  4.807737  0.000000
  4.807737  -9.090135  0.000000
  0.000000  0.000000  0.000000


  -2.642662  4.142140  0.000000
  4.142140  -8.006069  0.000000
  0.000000  0.000000  0.000000


  -2.587115  4.677611  0.000000
  4.677611  -8.768470  0.000000
  0.000000  0.000000  0.000000


  -2.322934  3.799459  0.000000
  3.799459  -7.812164  0.000000
  0.000000  0.000000  0.000000


  -2.882763  4.452975  0.000000
  4.452975  -7.541575  0.000000
  0.000000  0.000000  0.000000


  -2.366061  4.488311  0.000000
  4.488311  -8.624605  0.000000
  0.000000  0.000000  0.000000


  -2.793007  4.216650  0.000000
  4.216650  -7.184438  0.000000
  0.000000  0.000000  0.000000


  -2.196023  3.757448  0.000000
  3.757448  -7.813562  0.000000
  0.000000  0.000000  0.000000


  -2.279420  4.335742  0.000000
  4.335742  -8.427100  0.000000
  0.000000  0.000000  0.000000


  -2.382541  4.137430  0.000000
  4.137430  -7.369704  0.000000
  0.000000  0.000000  0.000000


  -2.286257  3.297112  0.000000
  3.297112  -6.327019  0.000000
  0.000000  0.000000  0.000000


  -2.448949  3.367629  0.000000
  3.367629  -6.488385  0.000000
  0.000000  0.000000  0.000000


  -2.830090  3.019894  0.000000
  3.019894  -3.607030  0.000000
  0.000000  0.000000  0.000000


  -2.872163  2.917102  0.000000
  2.917102  -3.512968  0.000000
  0.000000  0.000000  0.000000


  -2.423307  2.704870  0.000000
  2.704870  -4.121958  0.000000
  0.000000  0.000000  0.000000


  -2.815875  2.751359  0.000000
  2.751359  -3.067419  0.000000
  0.000000  0.000000  0.000000


  -3.006784  3.199584  0.000000
  3.199584  -4.062753  0.000000
  0.000000  0.000000  0.000000


  -2.600362  2.935329  0.000000
  2.935329  -4.640896  0.000000
  0.000000  0.000000  0.000000


  -3.019894  3.056534  0.000000
  3.056534  -3.632122  0.000000
  0.000000  0.000000  0.000000


  -3.158886  3.521531  0.000000
  3.521531  -4.625431  0.000000
  0.000000  0.000000  0.000000


  -2.738735  3.186123  0.000000
  3.186123  -5.141646  0.000000
  0.000000  0.000000  0.000000


  -3.177691  3.320079  0.000000
  3.320079  -4.112048  0.000000
  0.000000  0.000000  0.000000


  -3.340869  3.833150  0.000000
  3.833150  -5.183732  0.000000
  0.000000  0.000000  0.000000


  -2.928252  3.453810  0.000000
  3.453810  -5.555736  0.000000
  0.000000  0.000000  0.000000


  -3.357575  3.633107  0.000000
  3.633107  -4.601951  0.000000
  0.000000  0.000000  0.000000


  -2.431454  2.391143  0.000000
  2.391143  -3.440628  0.000000
  0.000000  0.000000  0.000000


  -2.565174  2.562672  0.000000
  2.562672  -3.807607  0.000000
  0.000000  0.000000  0.000000


  -2.948698  2.790539  0.000000
  2.790539  -2.979811  0.000000
  0.000000  0.000000  0.000000


  -2.740643  3.409900  0.000000
  3.409900  -5.685457  0.000000
  0.000000  0.000000  0.000000


  -3.114368  3.749688  0.000000
  3.749688  -5.261555  0.000000
  0.000000  0.000000  0.000000


  -3.943176  3.914441  0.000000
  3.914441  -4.602771  0.000000
  0.000000  0.000000  0.000000


  -3.203106  3.094302  0.000000
  3.094302  -4.441592  0.000000
  0.000000  0.000000  0.000000


  -5.136580  6.296401  0.000000
  6.296401  -8.311822  0.000000
  0.000000  0.000000  0.000000


  11.910526  -7.770316  0.000000
  -7.770316  3.911245  0.000000
  0.000000  0.000000  0.000000


  11.360488  -6.534052  0.000000
  -6.534052  3.869437  0.000000
  0.000000  0.000000  0.000000


  -4.763589  5.332417  0.000000
  5.332417  -6.862626  0.000000
  0.000000  0.000000  0.000000


  -4.346655  4.979094  0.000000
  4.979094  -7.306521  0.000000
  0.000000  0.000000  0.000000


  -5.096581  5.888194  0.000000
  5.888194  -7.308966  0.000000
  0.000000  0.000000  0.000000


  2.385172  -2.346608  0.000000
  -2.346608  0.684015  0.000000
  0.000000  0.000000  0.000000


  3.046399  -3.669288  0.000000
  -3.669288  1.354006  0.000000
  0.000000  0.000000  0.000000


  1.465292  -2.702065  0.000000
  -2.702065  0.864066  0.000000
  0.000000  0.000000  0.000000


  3.648832  -3.180924  0.000000
  -3.180924  1.728237  0.000000
  0.000000  0.000000  0.000000


  2.795183  -2.635751  0.000000
  -2.635751  0.818650  0.000000
  0.000000  0.000000  0.000000


  1.138291  -1.681943  0.000000
  -1.681943  0.342586  0.000000
  0.000000  0.000000  0.000000


  3.453548  -3.963441  0.000000
  -3.963441  1.572293  0.000000
  0.000000  0.000000  0.000000


  1.826360  -3.045702  0.000000
  -3.045702  0.968204  0.000000
  0.000000  0.000000  0.000000


  0.111183  -2.175921  0.000000
  -2.175921  0.383249  0.000000
  0.000000  0.000000  0.000000


  4.992557  -3.525113  0.000000
  -3.525113  0.908694  0.000000
  0.000000  0.000000  0.000000


  1.628981  -1.910254  0.000000
  -1.910254  0.375114  0.000000
  0.000000  0.000000  0.000000


  -0.003792  -0.999046  0.000000
  -0.999046  -0.237539  0.000000
  0.000000  0.000000  0.000000


  -0.558796  -0.947026  0.000000
  -0.947026  0.512559  0.000000
  0.000000  0.000000  0.000000


  0.661844  -2.335373  0.000000
  -2.335373  0.492627  0.000000
  0.000000  0.000000  0.000000


  -0.981887  -1.407639  0.000000
  -1.407639  -0.075015  0.000000
  0.000000  0.000000  0.000000


  0.466548  -1.202222  0.000000
  -1.202222  -0.099264  0.000000
  0.000000  0.000000  0.000000


  -1.145910  -0.359035  0.000000
  -0.359035  -0.623327  0.000000
  0.000000  0.000000  0.000000


  1.134044  -2.538230  0.000000
  -2.538230  0.607588  0.000000
  0.000000  0.000000  0.000000


  -0.488745  -1.657950  0.000000
  -1.657950  -0.054293  0.000000
  0.000000  0.000000  0.000000


  2.089201  -2.116518  0.000000
  -2.116518  0.493737  0.000000
  0.000000  0.000000  0.000000


  -0.643606  -0.466512  0.000000
  -0.466512  -0.679889  0.000000
  0.000000  0.000000  0.000000


  2.299494  -3.253931  0.000000
  -3.253931  1.085851  0.000000
  0.000000  0.000000  0.000000


  2.790936  -3.523341  0.000000
  -3.523341  1.250661  0.000000
  0.000000  0.000000  0.000000


  0.091319  -1.921319  0.000000
  -1.921319  -0.025213  0.000000
  0.000000  0.000000  0.000000


  -1.143845  -0.860161  0.000000
  -0.860161  -0.102761  0.000000
  0.000000  0.000000  0.000000


  -1.046749  -0.803108  0.000000
  -0.803108  -0.926310  0.000000
  0.000000  0.000000  0.000000


  -2.821966  0.082843  0.000000
  0.082843  -0.625460  0.000000
  0.000000  0.000000  0.000000


  -2.103232  -0.884850  0.000000
  -0.884850  -0.055172  0.000000
  0.000000  0.000000  0.000000


  -2.667233  0.174221  0.000000
  0.174221  -1.441083  0.000000
  0.000000  0.000000  0.000000


  0.256389  -1.613236  0.000000
  -1.613236  -0.437104  0.000000
  0.000000  0.000000  0.000000


  -4.622218  0.999685  0.000000
  0.999685  -1.050408  0.000000
  0.000000  0.000000  0.000000


  -4.285819  0.823464  0.000000
  0.823464  -0.866463  0.000000
  0.000000  0.000000  0.000000


  -2.984707  0.244972  0.000000
  0.244972  -1.499237  0.000000
  0.000000  0.000000  0.000000


  -4.438035  1.112235  0.000000
  1.112235  -1.952047  0.000000
  0.000000  0.000000  0.000000


  -4.078332  0.970462  0.000000
  0.970462  -1.871331  0.000000
  0.000000  0.000000  0.000000


  -2.129669  -0.083863  0.000000
  -0.083863  -1.344146  0.000000
  0.000000  0.000000  0.000000


  3.298859  -2.812489  0.000000
  -2.812489  0.967154  0.000000
  0.000000  0.000000  0.000000


  4.014748  -3.036916  0.000000
  -3.036916  0.997610  0.000000
  0.000000  0.000000  0.000000


  -6.438672  1.976768  0.000000
  1.976768  -1.540270  0.000000
  0.000000  0.000000  0.000000


  -5.681081  1.638344  0.000000
  1.638344  -1.351548  0.000000
  0.000000  0.000000  0.000000


  3.917102  -4.041366  0.000000
  -4.041366  1.541001  0.000000
  0.000000  0.000000  0.000000


  4.630145  -4.248092  0.000000
  -4.248092  1.493587  0.000000
  0.000000  0.000000  0.000000


  -4.721568  1.187878  0.000000
  1.187878  -1.998140  0.000000
  0.000000  0.000000  0.000000


  -5.472982  1.794969  0.000000
  1.794969  -2.306856  0.000000
  0.000000  0.000000  0.000000


  5.641870  -3.760850  0.000000
  -3.760850  1.454563  0.000000
  0.000000  0.000000  0.000000


  -7.470883  2.641468  0.000000
  2.641468  -1.871040  0.000000
  0.000000  0.000000  0.000000


  -7.039200  2.456829  0.000000
  2.456829  -1.818915  0.000000
  0.000000  0.000000  0.000000


  5.749425  -4.872586  0.000000
  -4.872586  2.040618  0.000000
  0.000000  0.000000  0.000000


  6.288658  -5.037492  0.000000
  -5.037492  2.001497  0.000000
  0.000000  0.000000  0.000000


  -5.859014  1.968186  0.000000
  1.968186  -2.391641  0.000000
  0.000000  0.000000  0.000000


  -6.813123  2.643127  0.000000
  2.643127  -2.759132  0.000000
  0.000000  0.000000  0.000000


  5.078380  -3.537095  0.000000
  -3.537095  1.384911  0.000000
  0.000000  0.000000  0.000000


  7.312401  -4.502166  0.000000
  -4.502166  2.046466  0.000000
  0.000000  0.000000  0.000000


  -8.784449  3.472815  0.000000
  3.472815  -2.331411  0.000000
  0.000000  0.000000  0.000000


  -8.321952  3.172860  0.000000
  3.172860  -2.046853  0.000000
  0.000000  0.000000  0.000000


  5.007088  -4.837878  0.000000
  -4.837878  2.082203  0.000000
  0.000000  0.000000  0.000000


  7.307855  -5.689128  0.000000
  -5.689128  2.680688  0.000000
  0.000000  0.000000  0.000000


  -7.236302  2.834031  0.000000
  2.834031  -2.849133  0.000000
  0.000000  0.000000  0.000000


  -8.027706  3.400764  0.000000
  3.400764  -3.356125  0.000000
  0.000000  0.000000  0.000000


  6.691090  -4.444320  0.000000
  -4.444320  1.953446  0.000000
  0.000000  0.000000  0.000000


  8.265934  -5.303428  0.000000
  -5.303428  2.492387  0.000000
  0.000000  0.000000  0.000000


  -9.269977  3.690303  0.000000
  3.690303  -2.407742  0.000000
  0.000000  0.000000  0.000000


  -10.051904  4.374572  0.000000
  4.374572  -2.865933  0.000000
  0.000000  0.000000  0.000000


  6.379566  -5.572765  0.000000
  -5.572765  2.577938  0.000000
  0.000000  0.000000  0.000000


  -7.670086  3.016692  0.000000
  3.016692  -2.911823  0.000000
  0.000000  0.000000  0.000000


  -9.009346  3.920668  0.000000
  3.920668  -3.394515  0.000000
  0.000000  0.000000  0.000000


  -8.507154  3.723242  0.000000
  3.723242  -3.349809  0.000000
  0.000000  0.000000  0.000000


  -7.913820  2.808626  0.000000
  2.808626  -1.944528  0.000000
  0.000000  0.000000  0.000000


  -9.750597  3.877305  0.000000
  3.877305  -2.466630  0.000000
  0.000000  0.000000  0.000000


  -11.118711  4.792882  0.000000
  4.792882  -2.943397  0.000000
  0.000000  0.000000  0.000000


  -8.111281  3.180870  0.000000
  3.180870  -2.969072  0.000000
  0.000000  0.000000  0.000000


  -9.499344  4.098581  0.000000
  4.098581  -3.425486  0.000000
  0.000000  0.000000  0.000000


  -10.834167  5.054331  0.000000
  5.054331  -3.961370  0.000000
  0.000000  0.000000  0.000000


  -8.358691  2.965171  0.000000
  2.965171  -2.013669  0.000000
  0.000000  0.000000  0.000000


  -11.500507  5.187292  0.000000
  5.187292  -2.889302  0.000000
  0.000000  0.000000  0.000000


  -12.953206  6.238610  0.000000
  6.238610  -3.380593  0.000000
  0.000000  0.000000  0.000000


  -12.419678  5.716221  0.000000
  5.716221  -3.448425  0.000000
  0.000000  0.000000  0.000000


  -12.152178  5.962815  0.000000
  5.962815  -4.400547  0.000000
  0.000000  0.000000  0.000000


  -10.307771  4.857184  0.000000
  4.857184  -3.894309  0.000000
  0.000000  0.000000  0.000000


  -14.189447  6.890398  0.000000
  6.890398  -3.929493  0.000000
  0.000000  0.000000  0.000000


  -13.801836  6.677462  0.000000
  6.677462  -3.925195  0.000000
  0.000000  0.000000  0.000000


  -11.895134  5.534684  0.000000
  5.534684  -3.414088  0.000000
  0.000000  0.000000  0.000000


  -10.593396  4.589949  0.000000
  4.589949  -2.901429  0.000000
  0.000000  0.000000  0.000000


  -12.618865  6.383845  0.000000
  6.383845  -4.771651  0.000000
  0.000000  0.000000  0.000000


  -13.505280  6.985629  0.000000
  6.985629  -4.770509  0.000000
  0.000000  0.000000  0.000000


  -11.598134  5.824692  0.000000
  5.824692  -4.372416  0.000000
  0.000000  0.000000  0.000000


  -15.897983  7.752354  0.000000
  7.752354  -4.350909  0.000000
  0.000000  0.000000  0.000000


  -15.106577  7.732933  0.000000
  7.732933  -4.430206  0.000000
  0.000000  0.000000  0.000000


  -13.193613  6.527779  0.000000
  6.527779  -3.940082  0.000000
  0.000000  0.000000  0.000000


  -14.006847  6.986838  0.000000
  6.986838  -5.015632  0.000000
  0.000000  0.000000  0.000000


  -15.133948  8.643814  0.000000
  8.643814  -5.939449  0.000000
  0.000000  0.000000  0.000000


  -15.105449  7.631490  0.000000
  7.631490  -5.053551  0.000000
  0.000000  0.000000  0.000000


  -12.894295  6.820644  0.000000
  6.820644  -4.902308  0.000000
  0.000000  0.000000  0.000000


  -16.691463  7.943076  0.000000
  7.943076  -4.505008  0.000000
  0.000000  0.000000  0.000000


  -14.572322  7.609630  0.000000
  7.609630  -4.559544  0.000000
  0.000000  0.000000  0.000000


  -14.503502  7.666622  0.000000
  7.666622  -4.843285  0.000000
  0.000000  0.000000  0.000000


  -12.207641  6.577975  0.000000
  6.577975  -5.087551  0.000000
  0.000000  0.000000  0.000000


  -13.607652  7.070973  0.000000
  7.070973  -4.429941  0.000000
  0.000000  0.000000  0.000000


  -12.574801  6.219152  0.000000
  6.219152  -3.903725  0.000000
  0.000000  0.000000  0.000000


  -13.198736  7.502530  0.000000
  7.502530  -5.558548  0.000000
  0.000000  0.000000  0.000000


  -11.572703  6.301457  0.000000
  6.301457  -4.835486  0.000000
  0.000000  0.000000  0.000000


  -10.235873  5.357779  0.000000
  5.357779  -4.360295  0.000000
  0.000000  0.000000  0.000000


  -15.365745  8.370176  0.000000
  8.370176  -5.106742  0.000000
  0.000000  0.000000  0.000000


  -14.988567  8.124730  0.000000
  8.124730  -4.699717  0.000000
  0.000000  0.000000  0.000000


  -13.241203  6.931382  0.000000
  6.931382  -4.146085  0.000000
  0.000000  0.000000  0.000000


  -1.750228  0.040010  0.000000
  0.040010  -0.214130  0.000000
  0.000000  0.000000  0.000000


  -0.773918  -1.438215  0.000000
  -1.438215  -0.604369  0.000000
  0.000000  0.000000  0.000000


  0.843419  -1.301402  0.000000
  -1.301402  -0.032698  0.000000
  0.000000  0.000000  0.000000


  2.344613  -2.041057  0.000000
  -2.041057  0.490870  0.000000
  0.000000  0.000000  0.000000


  0.831188  -1.447230  0.000000
  -1.447230  -0.240381  0.000000
  0.000000  0.000000  0.000000


  -2.341317  -0.827075  0.000000
  -0.827075  -0.361527  0.000000
  0.000000  0.000000  0.000000


  -3.351503  0.419063  0.000000
  0.419063  -0.955107  0.000000
  0.000000  0.000000  0.000000


  -3.394219  0.978564  0.000000
  0.978564  -1.722931  0.000000
  0.000000  0.000000  0.000000


  -3.157434  0.715262  0.000000
  0.715262  -0.533172  0.000000
  0.000000  0.000000  0.000000


  -2.298615  -0.599119  0.000000
  -0.599119  -0.862212  0.000000
  0.000000  0.000000  0.000000


  4.467504  -3.042138  0.000000
  -3.042138  0.861624  0.000000
  0.000000  0.000000  0.000000


  5.146087  -4.419024  0.000000
  -4.419024  1.722710  0.000000
  0.000000  0.000000  0.000000


  2.971002  -3.478870  0.000000
  -3.478870  1.488869  0.000000
  0.000000  0.000000  0.000000


  6.242437  -4.004532  0.000000
  -4.004532  1.453026  0.000000
  0.000000  0.000000  0.000000


  5.117644  -3.501146  0.000000
  -3.501146  1.234544  0.000000
  0.000000  0.000000  0.000000


  6.926529  -5.387200  0.000000
  -5.387200  2.274344  0.000000
  0.000000  0.000000  0.000000


  5.777190  -4.762962  0.000000
  -4.762962  1.494602  0.000000
  0.000000  0.000000  0.000000


  3.843730  -3.945770  0.000000
  -3.945770  1.622031  0.000000
  0.000000  0.000000  0.000000


  3.764760  -2.661027  0.000000
  -2.661027  0.588403  0.000000
  0.000000  0.000000  0.000000


  7.749716  -4.939447  0.000000
  -4.939447  2.345598  0.000000
  0.000000  0.000000  0.000000


  6.806911  -4.176400  0.000000
  -4.176400  1.636244  0.000000
  0.000000  0.000000  0.000000


  7.435780  -5.440775  0.000000
  -5.440775  2.346094  0.000000
  0.000000  0.000000  0.000000


  6.697747  -3.981812  0.000000
  -3.981812  1.011676  0.000000
  0.000000  0.000000  0.000000


  6.573393  -4.352075  0.000000
  -4.352075  1.904498  0.000000
  0.000000  0.000000  0.000000


  6.628182  -1.530580  0.000000
  -1.530580  -1.412578  0.000000
  0.000000  0.000000  0.000000


  9.715778  -5.496278  0.000000
  -5.496278  1.685319  0.000000
  0.000000  0.000000  0.000000


  -6.066525  1.822490  0.000000
  1.822490  -1.435705  0.000000
  0.000000  0.000000  0.000000


  -2.982565  2.625633  0.000000
  2.625633  -3.643358  0.000000
  0.000000  0.000000  0.000000


  11.228636  -5.731735  0.000000
  -5.731735  2.446900  0.000000
  0.000000  0.000000  0.000000


  12.732897  -6.592186  0.000000
  -6.592186  2.184006  0.000000
  0.000000  0.000000  0.000000


  12.472583  -6.715869  0.000000
  -6.715869  3.157556  0.000000
  0.000000  0.000000  0.000000


  13.289184  -5.872040  0.000000
  -5.872040  2.470479  0.000000
  0.000000  0.000000  0.000000


  12.767093  -6.582884  0.000000
  -6.582884  2.084612  0.000000
  0.000000  0.000000  0.000000


  8.935580  -1.130169  0.000000
  -1.130169  -0.305731  0.000000
  0.000000  0.000000  0.000000


  7.928864  -0.080131  0.000000
  -0.080131  -0.774067  0.000000
  0.000000  0.000000  0.000000


  11.084427  -0.435969  0.000000
  -0.435969  -1.181039  0.000000
  0.000000  0.000000  0.000000


  8.862823  -0.397825  0.000000
  -0.397825  -0.510887  0.000000
  0.000000  0.000000  0.000000


  6.705362  -1.020943  0.000000
  -1.020943  -0.571293  0.000000
  0.000000  0.000000  0.000000


  7.668673  -1.292199  0.000000
  -1.292199  -0.715726  0.000000
  0.000000  0.000000  0.000000


  6.435051  -0.054668  0.000000
  -0.054668  -0.492492  0.000000
  0.000000  0.000000  0.000000


  -4.717498  1.624629  0.000000
  1.624629  -2.262675  0.000000
  0.000000  0.000000  0.000000


  -6.806484  2.583682  0.000000
  2.583682  -1.782206  0.000000
  0.000000  0.000000  0.000000


  -5.139841  1.156623  0.000000
  1.156623  -1.234845  0.000000
  0.000000  0.000000  0.000000


  0.027205  -0.556439  0.000000
  -0.556439  -0.971866  0.000000
  0.000000  0.000000  0.000000


  -0.044006  -0.381774  0.000000
  -0.381774  3.728511  0.000000
  0.000000  0.000000  0.000000


  -0.231384  -0.257224  0.000000
  -0.257224  4.025916  0.000000
  0.000000  0.000000  0.000000


  6.397151  -2.930550  0.000000
  -2.930550  -0.571848  0.000000
  0.000000  0.000000  0.000000


  -0.949757  -0.107790  0.000000
  -0.107790  2.076024  0.000000
  0.000000  0.000000  0.000000


  14.745667  -4.922261  0.000000
  -4.922261  0.620582  0.000000
  0.000000  0.000000  0.000000


  14.348950  -1.022822  0.000000
  -1.022822  -0.381615  0.000000
  0.000000  0.000000  0.000000


  -0.401135  1.484145  0.000000
  1.484145  -0.239474  0.000000
  0.000000  0.000000  0.000000


  9.734596  -3.678598  0.000000
  -3.678598  0.786418  0.000000
  0.000000  0.000000  0.000000


  -14.619397  1.201847  0.000000
  1.201847  -1.646767  0.000000
  0.000000  0.000000  0.000000


  6.637321  -1.715599  0.000000
  -1.715599  -0.442067  0.000000
  0.000000  0.000000  0.000000


  -0.098408  0.675495  0.000000
  0.675495  0.640918  0.000000
  0.000000  0.000000  0.000000


  -0.619509  -0.645983  0.000000
  -0.645983  4.341243  0.000000
  0.000000  0.000000  0.000000


  -21.014933  4.648054  0.000000
  4.648054  -2.001453  0.000000
  0.000000  0.000000  0.000000


  -23.723856  6.186425  0.000000
  6.186425  -1.625786  0.000000
  0.000000  0.000000  0.000000


  -0.309416  0.319096  0.000000
  0.319096  2.689697  0.000000
  0.000000  0.000000  0.000000


  -0.187355  0.386026  0.000000
  0.386026  2.271155  0.000000
  0.000000  0.000000  0.000000


  -0.269997  0.463218  0.000000
  0.463218  2.294732  0.000000
  0.000000  0.000000  0.000000


  -0.276673  0.354686  0.000000
  0.354686  2.496040  0.000000
  0.000000  0.000000  0.000000


  2.501628  -1.397482  0.000000
  -1.397482  -0.436087  0.000000
  0.000000  0.000000  0.000000


  3.990875  0.136590  0.000000
  0.136590  -0.781915  0.000000
  0.000000  0.000000  0.000000


  17.341702  -1.100384  0.000000
  -1.100384  -0.631490  0.000000
  0.000000  0.000000  0.000000


  -2.022007  1.075048  0.000000
  1.075048  0.289760  0.000000
  0.000000  0.000000  0.000000


  -1.670332  0.482571  0.000000
  0.482571  0.298889  0.000000
  0.000000  0.000000  0.000000


  -1.854173  0.698289  0.000000
  0.698289  0.914623  0.000000
  0.000000  0.000000  0.000000


  -2.178676  1.222906  0.000000
  1.222906  0.009893  0.000000
  0.000000  0.000000  0.000000


  -1.481608  0.092548  0.000000
  0.092548  0.951751  0.000000
  0.000000  0.000000  0.000000


  -1.358902  -0.386042  0.000000
  -0.386042  1.686583  0.000000
  0.000000  0.000000  0.000000


  -1.623500  0.592200  0.000000
  0.592200  0.948167  0.000000
  0.000000  0.000000  0.000000


  -1.924900  0.876598  0.000000
  0.876598  0.653104  0.000000
  0.000000  0.000000  0.000000


  -1.782529  0.623740  0.000000
  0.623740  -0.114148  0.000000
  0.000000  0.000000  0.000000


  -2.279876  1.456637  0.000000
  1.456637  -0.436392  0.000000
  0.000000  0.000000  0.000000


  -2.077723  1.024885  0.000000
  1.024885  -0.566302  0.000000
  0.000000  0.000000  0.000000


  -2.410086  1.851743  0.000000
  1.851743  -1.298432  0.000000
  0.000000  0.000000  0.000000


  -1.526937  0.363842  0.000000
  0.363842  0.106623  0.000000
  0.000000  0.000000  0.000000


  3.159250  -2.516155  0.000000
  -2.516155  -0.401209  0.000000
  0.000000  0.000000  0.000000


  -0.628945  -0.054160  0.000000
  -0.054160  3.011904  0.000000
  0.000000  0.000000  0.000000


  0.370809  -2.305991  0.000000
  -2.305991  1.159698  0.000000
  0.000000  0.000000  0.000000


  -0.518690  1.458182  0.000000
  1.458182  0.440841  0.000000
  0.000000  0.000000  0.000000


  9.936946  -3.225587  0.000000
  -3.225587  -0.612954  0.000000
  0.000000  0.000000  0.000000


  15.194464  -8.046809  0.000000
  -8.046809  3.271741  0.000000
  0.000000  0.000000  0.000000


  2.343665  -4.708403  0.000000
  -4.708403  6.873079  0.000000
  0.000000  0.000000  0.000000


  9.770544  -6.946726  0.000000
  -6.946726  3.880169  0.000000
  0.000000  0.000000  0.000000


  7.913736  -6.401591  0.000000
  -6.401591  4.370779  0.000000
  0.000000  0.000000  0.000000


  13.795787  -3.968109  0.000000
  -3.968109  -0.136796  0.000000
  0.000000  0.000000  0.000000


  12.562917  -2.868308  0.000000
  -2.868308  0.130870  0.000000
  0.000000  0.000000  0.000000


  13.727867  -3.874895  0.000000
  -3.874895  0.266324  0.000000
  0.000000  0.000000  0.000000


  12.245723  -3.435836  0.000000
  -3.435836  -0.366607  0.000000
  0.000000  0.000000  0.000000


  10.903489  -2.525797  0.000000
  -2.525797  -0.075618  0.000000
  0.000000  0.000000  0.000000


  10.696591  -2.953799  0.000000
  -2.953799  -0.577842  0.000000
  0.000000  0.000000  0.000000


  13.024496  -3.237558  0.000000
  -3.237558  -0.732088  0.000000
  0.000000  0.000000  0.000000


  8.833832  -2.277269  0.000000
  -2.277269  -0.284337  0.000000
  0.000000  0.000000  0.000000


  8.332896  -3.003206  0.000000
  -3.003206  -0.764580  0.000000
  0.000000  0.000000  0.000000


  8.788040  -2.250151  0.000000
  -2.250151  -0.268401  0.000000
  0.000000  0.000000  0.000000


  15.989976  -4.183141  0.000000
  -4.183141  -0.147427  0.000000
  0.000000  0.000000  0.000000


  -1.259240  1.221197  0.000000
  1.221197  0.235307  0.000000
  0.000000  0.000000  0.000000


  -16.446138  5.146479  0.000000
  5.146479  -2.242244  0.000000
  0.000000  0.000000  0.000000


  -17.588261  0.128933  0.000000
  0.128933  -0.389659  0.000000
  0.000000  0.000000  0.000000


  -17.518645  1.637172  0.000000
  1.637172  -0.754667  0.000000
  0.000000  0.000000  0.000000


  -18.686651  0.471857  0.000000
  0.471857  -0.440227  0.000000
  0.000000  0.000000  0.000000


  -19.034679  1.775489  0.000000
  1.775489  -0.181611  0.000000
  0.000000  0.000000  0.000000


  -2.175802  1.701537  0.000000
  1.701537  -0.873565  0.000000
  0.000000  0.000000  0.000000


  -1.829237  1.505353  0.000000
  1.505353  -1.664780  0.000000
  0.000000  0.000000  0.000000


  -2.386869  2.244431  0.000000
  2.244431  -2.017916  0.000000
  0.000000  0.000000  0.000000


  -2.159830  2.113912  0.000000
  2.113912  -2.203876  0.000000
  0.000000  0.000000  0.000000


  -2.474414  2.355536  0.000000
  2.355536  -2.259354  0.000000
  0.000000  0.000000  0.000000


  -2.213026  2.045248  0.000000
  2.045248  -2.640198  0.000000
  0.000000  0.000000  0.000000


  -2.224001  2.256929  0.000000
  2.256929  -3.135278  0.000000
  0.000000  0.000000  0.000000


  -2.503354  2.389062  0.000000
  2.389062  -2.776418  0.000000
  0.000000  0.000000  0.000000


  -2.293298  2.834117  0.000000
  2.834117  -4.048434  0.000000
  0.000000  0.000000  0.000000


  -7.092117  2.242838  0.000000
  2.242838  -1.687875  0.000000
  0.000000  0.000000  0.000000


  1.869455  -3.738107  0.000000
  -3.738107  4.907432  0.000000
  0.000000  0.000000  0.000000


  2.570337  -4.704777  0.000000
  -4.704777  5.014803  0.000000
  0.000000  0.000000  0.000000


  2.652092  -4.436838  0.000000
  -4.436838  4.603100  0.000000
  0.000000  0.000000  0.000000


  3.113449  -5.257269  0.000000
  -5.257269  5.499278  0.000000
  0.000000  0.000000  0.000000


  0.463414  -2.165559  0.000000
  -2.165559  2.863064  0.000000
  0.000000  0.000000  0.000000


  -1.980730  3.351018  0.000000
  3.351018  -6.911204  0.000000
  0.000000  0.000000  0.000000


  -20.051487  4.201011  0.000000
  4.201011  -2.018345  0.000000
  0.000000  0.000000  0.000000


  -24.056084  4.634143  0.000000
  4.634143  -1.242069  0.000000
  0.000000  0.000000  0.000000


  0.141123  -1.751915  0.000000
  -1.751915  6.121944  0.000000
  0.000000  0.000000  0.000000


  0.339718  -1.546342  0.000000
  -1.546342  5.619350  0.000000
  0.000000  0.000000  0.000000


  0.115239  -2.062739  0.000000
  -2.062739  6.223192  0.000000
  0.000000  0.000000  0.000000


  -0.007236  -1.535239  0.000000
  -1.535239  5.670546  0.000000
  0.000000  0.000000  0.000000


  0.180089  -1.246950  0.000000
  -1.246950  5.038946  0.000000
  0.000000  0.000000  0.000000


  0.085215  -1.346837  0.000000
  -1.346837  5.002723  0.000000
  0.000000  0.000000  0.000000


  -0.455505  -0.971155  0.000000
  -0.971155  4.981742  0.000000
  0.000000  0.000000  0.000000


  -0.050770  -1.808606  0.000000
  -1.808606  5.625291  0.000000
  0.000000  0.000000  0.000000


  -0.063836  -1.355144  0.000000
  -1.355144  4.992966  0.000000
  0.000000  0.000000  0.000000


  0.709280  -3.108015  0.000000
  -3.108015  3.863125  0.000000
  0.000000  0.000000  0.000000


  -12.245685  0.480693  0.000000
  0.480693  -1.648861  0.000000
  0.000000  0.000000  0.000000


  -11.236595  1.521557  0.000000
  1.521557  -1.823670  0.000000
  0.000000  0.000000  0.000000


  -11.385725  1.222240  0.000000
  1.222240  -1.235131  0.000000
  0.000000  0.000000  0.000000


  -0.264737  0.457990  0.000000
  0.457990  2.121702  0.000000
  0.000000  0.000000  0.000000


  -11.081552  4.143045  0.000000
  4.143045  -2.441391  0.000000
  0.000000  0.000000  0.000000


  -0.159493  0.520136  0.000000
  0.520136  0.844102  0.000000
  0.000000  0.000000  0.000000


  -0.041822  0.458267  0.000000
  0.458267  0.734575  0.000000
  0.000000  0.000000  0.000000


  -0.185807  0.663854  0.000000
  0.663854  0.771649  0.000000
  0.000000  0.000000  0.000000


  -0.147293  0.699083  0.000000
  0.699083  0.495796  0.000000
  0.000000  0.000000  0.000000


  -0.295814  0.857535  0.000000
  0.857535  0.519238  0.000000
  0.000000  0.000000  0.000000


  -0.140758  0.421525  0.000000
  0.421525  1.127792  0.000000
  0.000000  0.000000  0.000000


  0.680342  -2.682946  0.000000
  -2.682946  4.506325  0.000000
  0.000000  0.000000  0.000000


  2.296827  -4.826802  0.000000
  -4.826802  8.192208  0.000000
  0.000000  0.000000  0.000000


  -15.767820  0.986422  0.000000
  0.986422  -1.410366  0.000000
  0.000000  0.000000  0.000000


  -10.373800  5.074791  0.000000
  5.074791  -3.409379  0.000000
  0.000000  0.000000  0.000000


  -13.682286  1.663080  0.000000
  1.663080  -1.983516  0.000000
  0.000000  0.000000  0.000000


  -9.746279  4.671792  0.000000
  4.671792  -3.862615  0.000000
  0.000000  0.000000  0.000000


  -11.339426  5.321498  0.000000
  5.321498  -3.312759  0.000000
  0.000000  0.000000  0.000000


  -11.041385  5.588412  0.000000
  5.588412  -4.420934  0.000000
  0.000000  0.000000  0.000000


  -9.070320  4.275996  0.000000
  4.275996  -3.841787  0.000000
  0.000000  0.000000  0.000000


  0.867740  -2.865684  0.000000
  -2.865684  5.470215  0.000000
  0.000000  0.000000  0.000000


  8.190170  -4.283395  0.000000
  -4.283395  1.502707  0.000000
  0.000000  0.000000  0.000000


  15.036798  -2.297176  0.000000
  -2.297176  -0.192405  0.000000
  0.000000  0.000000  0.000000


  16.983445  -1.576297  0.000000
  -1.576297  -0.743820  0.000000
  0.000000  0.000000  0.000000


  7.142048  -6.288247  0.000000
  -6.288247  5.120271  0.000000
  0.000000  0.000000  0.000000


  -0.666495  0.584912  0.000000
  0.584912  2.200019  0.000000
  0.000000  0.000000  0.000000


  -3.301976  -0.238402  0.000000
  -0.238402  -1.677445  0.000000
  0.000000  0.000000  0.000000


  -1.847383  -0.206648  0.000000
  -0.206648  0.117993  0.000000
  0.000000  0.000000  0.000000


  -2.322965  1.789707  0.000000
  1.789707  -1.003570  0.000000
  0.000000  0.000000  0.000000


  -4.967551  1.187345  0.000000
  1.187345  -1.966403  0.000000
  0.000000  0.000000  0.000000


  -6.869449  2.151616  0.000000
  2.151616  -1.644427  0.000000
  0.000000  0.000000  0.000000


  -6.719708  2.145727  0.000000
  2.145727  -1.586858  0.000000
  0.000000  0.000000  0.000000


  -6.806241  2.079457  0.000000
  2.079457  -2.406258  0.000000
  0.000000  0.000000  0.000000


  -8.720753  3.184458  0.000000
  3.184458  -2.170524  0.000000
  0.000000  0.000000  0.000000


  -8.681369  3.100766  0.000000
  3.100766  -2.808672  0.000000
  0.000000  0.000000  0.000000


  -10.923963  0.307808  0.000000
  0.307808  -0.419435  0.000000
  0.000000  0.000000  0.000000


  -11.398007  1.417451  0.000000
  1.417451  -0.669812  0.000000
  0.000000  0.000000  0.000000


  8.257290  -6.139831  0.000000
  -6.139831  2.743030  0.000000
  0.000000  0.000000  0.000000


  8.762076  -5.656028  0.000000
  -5.656028  2.971777  0.000000
  0.000000  0.000000  0.000000


  7.642462  -4.843234  0.000000
  -4.843234  2.683689  0.000000
  0.000000  0.000000  0.000000


  7.911274  -6.194924  0.000000
  -6.194924  3.151895  0.000000
  0.000000  0.000000  0.000000


  -0.183925  0.840856  0.000000
  0.840856  0.401828  0.000000
  0.000000  0.000000  0.000000


  -19.226178  1.584413  0.000000
  1.584413  -1.302267  0.000000
  0.000000  0.000000  0.000000


  -0.250372  0.508826  0.000000
  0.508826  2.147742  0.000000
  0.000000  0.000000  0.000000


  -3.744481  0.572809  0.000000
  0.572809  -0.907510  0.000000
  0.000000  0.000000  0.000000


  5.852176  -2.636430  0.000000
  -2.636430  0.154800  0.000000
  0.000000  0.000000  0.000000


  -3.539562  3.919537  0.000000
  3.919537  -5.013812  0.000000
  0.000000  0.000000  0.000000


  -0.053447  0.496581  0.000000
  0.496581  0.958333  0.000000
  0.000000  0.000000  0.000000


  -17.075397  7.278903  0.000000
  7.278903  -3.906736  0.000000
  0.000000  0.000000  0.000000


  0.171105  -0.080993  0.000000
  -0.080993  -1.921900  0.000000
  0.000000  0.000000  0.000000


  10.820193  -0.800986  0.000000
  -0.800986  -0.269138  0.000000
  0.000000  0.000000  0.000000


  10.813430  -0.878232  0.000000
  -0.878232  -0.943678  0.000000
  0.000000  0.000000  0.000000


  -2.139146  1.269991  0.000000
  1.269991  -1.399753  0.000000
  0.000000  0.000000  0.000000


  3.618655  -0.604756  0.000000
  -0.604756  -1.245712  0.000000
  0.000000  0.000000  0.000000


  -8.466713  7.458051  0.000000
  7.458051  -7.295564  0.000000
  0.000000  0.000000  0.000000


  -0.464692  -0.424571  0.000000
  -0.424571  4.270093  0.000000
  0.000000  0.000000  0.000000


  -20.089582  4.639861  0.000000
  4.639861  -1.557963  0.000000
  0.000000  0.000000  0.000000


  -20.986851  3.514354  0.000000
  3.514354  -1.526777  0.000000
  0.000000  0.000000  0.000000


  -18.481034  3.407935  0.000000
  3.407935  -1.954784  0.000000
  0.000000  0.000000  0.000000


  -20.469643  4.988582  0.000000
  4.988582  -1.601754  0.000000
  0.000000  0.000000  0.000000


  11.171668  -7.004533  0.000000
  -7.004533  2.987812  0.000000
  0.000000  0.000000  0.000000


  9.989535  -5.892934  0.000000
  -5.892934  3.057907  0.000000
  0.000000  0.000000  0.000000


  11.365933  -6.971028  0.000000
  -6.971028  2.938344  0.000000
  0.000000  0.000000  0.000000


  9.872785  -6.157714  0.000000
  -6.157714  2.476878  0.000000
  0.000000  0.000000  0.000000


  -2.285186  0.367382  0.000000
  0.367382  -0.279049  0.000000
  0.000000  0.000000  0.000000


  19.024720  -5.588459  0.000000
  -5.588459  0.845812  0.000000
  0.000000  0.000000  0.000000


  17.295186  -5.158711  0.000000
  -5.158711  0.406115  0.000000
  0.000000  0.000000  0.000000


  -2.080708  2.767141  0.000000
  2.767141  -4.776103  0.000000
  0.000000  0.000000  0.000000


  3.970260  -0.890677  0.000000
  -0.890677  -0.977431  0.000000
  0.000000  0.000000  0.000000


  -2.471736  2.461862  0.000000
  2.461862  -2.391642  0.000000
  0.000000  0.000000  0.000000


  3.472335  -3.084510  0.000000
  -3.084510  0.265541  0.000000
  0.000000  0.000000  0.000000


  15.179140  -2.075490  0.000000
  -2.075490  -0.197692  0.000000
  0.000000  0.000000  0.000000


  17.098598  -1.348391  0.000000
  -1.348391  -0.780423  0.000000
  0.000000  0.000000  0.000000


  6.248321  -5.588070  0.000000
  -5.588070  4.512372  0.000000
  0.000000  0.000000  0.000000


  1.605470  -2.149173  0.000000
  -2.149173  0.605145  0.000000
  0.000000  0.000000  0.000000


  -0.410606  1.387918  0.000000
  1.387918  -1.390448  0.000000
  0.000000  0.000000  0.000000


  7.803105  -6.670802  0.000000
  -6.670802  3.916006  0.000000
  0.000000  0.000000  0.000000


  10.222202  -7.976786  0.000000
  -7.976786  4.832375  0.000000
  0.000000  0.000000  0.000000


  9.765356  -6.655555  0.000000
  -6.655555  4.603500  0.000000
  0.000000  0.000000  0.000000


  9.107564  -6.806581  0.000000
  -6.806581  4.941555  0.000000
  0.000000  0.000000  0.000000


  1.228848  -3.556312  0.000000
  -3.556312  4.800262  0.000000
  0.000000  0.000000  0.000000


  10.300495  -3.145648  0.000000
  -3.145648  -0.627735  0.000000
  0.000000  0.000000  0.000000


  12.568644  -2.822080  0.000000
  -2.822080  0.146318  0.000000
  0.000000  0.000000  0.000000


  15.048083  -2.926433  0.000000
  -2.926433  -0.321644  0.000000
  0.000000  0.000000  0.000000


  -0.796898  -0.504931  0.000000
  -0.504931  4.096914  0.000000
  0.000000  0.000000  0.000000


  -0.478741  -0.405204  0.000000
  -0.405204  3.391525  0.000000
  0.000000  0.000000  0.000000


  -0.734193  -0.675813  0.000000
  -0.675813  3.907581  0.000000
  0.000000  0.000000  0.000000


  -0.626639  -0.240433  0.000000
  -0.240433  3.273636  0.000000
  0.000000  0.000000  0.000000


  -0.435610  -0.558612  0.000000
  -0.558612  3.951446  0.000000
  0.000000  0.000000  0.000000


  -0.621410  -0.921503  0.000000
  -0.921503  4.543978  0.000000
  0.000000  0.000000  0.000000


  -0.510574  -1.045528  0.000000
  -1.045528  4.445576  0.000000
  0.000000  0.000000  0.000000


  -16.994396  7.347747  0.000000
  7.347747  -4.075357  0.000000
  0.000000  0.000000  0.000000


  17.216130  -1.397553  0.000000
  -1.397553  -0.917496  0.000000
  0.000000  0.000000  0.000000


  15.196905  -1.142481  0.000000
  -1.142481  -0.136692  0.000000
  0.000000  0.000000  0.000000


  14.776238  -1.100560  0.000000
  -1.100560  -0.200772  0.000000
  0.000000  0.000000  0.000000


  17.227580  -1.278124  0.000000
  -1.278124  -0.864864  0.000000
  0.000000  0.000000  0.000000


  -16.023993  3.089972  0.000000
  3.089972  -1.951657  0.000000
  0.000000  0.000000  0.000000


  9.280018  -6.673131  0.000000
  -6.673131  2.853513  0.000000
  0.000000  0.000000  0.000000


  10.066076  -5.843057  0.000000
  -5.843057  2.403785  0.000000
  0.000000  0.000000  0.000000


  -0.437751  1.621828  0.000000
  1.621828  -0.062663  0.000000
  0.000000  0.000000  0.000000


  -0.094916  -0.678156  0.000000
  -0.678156  4.475989  0.000000
  0.000000  0.000000  0.000000


  -0.152429  -0.483393  0.000000
  -0.483393  -0.709465  0.000000
  0.000000  0.000000  0.000000


  14.311893  -4.914273  0.000000
  -4.914273  0.702936  0.000000
  0.000000  0.000000  0.000000


  16.992333  -2.022363  0.000000
  -2.022363  -1.080975  0.000000
  0.000000  0.000000  0.000000


  -2.310673  2.830694  0.000000
  2.830694  -4.641827  0.000000
  0.000000  0.000000  0.000000


  -17.645210  3.771522  0.000000
  3.771522  -1.481067  0.000000
  0.000000  0.000000  0.000000


  0.132463  1.115977  0.000000
  1.115977  -0.385259  0.000000
  0.000000  0.000000  0.000000


  -0.038407  0.999685  0.000000
  0.999685  -0.253617  0.000000
  0.000000  0.000000  0.000000


  0.118682  1.152545  0.000000
  1.152545  -0.020470  0.000000
  0.000000  0.000000  0.000000


  0.391950  0.862193  0.000000
  0.862193  -0.350989  0.000000
  0.000000  0.000000  0.000000


  -0.023683  0.962047  0.000000
  0.962047  -0.675636  0.000000
  0.000000  0.000000  0.000000


  0.156463  1.002196  0.000000
  1.002196  -0.236169  0.000000
  0.000000  0.000000  0.000000


  -0.152908  1.098267  0.000000
  1.098267  -0.400477  0.000000
  0.000000  0.000000  0.000000


  -0.145626  0.831861  0.000000
  0.831861  -0.541048  0.000000
  0.000000  0.000000  0.000000


  -0.047094  1.180706  0.000000
  1.180706  -0.490996  0.000000
  0.000000  0.000000  0.000000


  -0.136537  1.053266  0.000000
  1.053266  -0.816139  0.000000
  0.000000  0.000000  0.000000


  -0.120687  0.758148  0.000000
  0.758148  -1.082268  0.000000
  0.000000  0.000000  0.000000


  -0.033994  0.592197  0.000000
  0.592197  -0.960715  0.000000
  0.000000  0.000000  0.000000


  -0.191537  0.966744  0.000000
  0.966744  -0.731512  0.000000
  0.000000  0.000000  0.000000


  -0.146242  0.709926  0.000000
  0.709926  -1.036071  0.000000
  0.000000  0.000000  0.000000


  -0.177897  0.930442  0.000000
  0.930442  -1.095840  0.000000
  0.000000  0.000000  0.000000


  -0.283133  1.125362  0.000000
  1.125362  -0.746348  0.000000
  0.000000  0.000000  0.000000


  -0.221602  0.857285  0.000000
  0.857285  -1.024803  0.000000
  0.000000  0.000000  0.000000


  -0.241601  1.236141  0.000000
  1.236141  -0.849353  0.000000
  0.000000  0.000000  0.000000


  -0.200728  0.798973  0.000000
  0.798973  -1.539035  0.000000
  0.000000  0.000000  0.000000


  -0.165437  0.620366  0.000000
  0.620366  -1.409547  0.000000
  0.000000  0.000000  0.000000


  -0.292232  1.028588  0.000000
  1.028588  -1.145521  0.000000
  0.000000  0.000000  0.000000


  -0.196259  0.690280  0.000000
  0.690280  -1.446338  0.000000
  0.000000  0.000000  0.000000


  -0.264232  1.071299  0.000000
  1.071299  -1.187443  0.000000
  0.000000  0.000000  0.000000


  -0.269477  0.953414  0.000000
  0.953414  -1.505552  0.000000
  0.000000  0.000000  0.000000


  -0.365960  1.235223  0.000000
  1.235223  -0.886251  0.000000
  0.000000  0.000000  0.000000


  -0.388251  1.079202  0.000000
  1.079202  -1.251692  0.000000
  0.000000  0.000000  0.000000


  -0.261147  1.244129  0.000000
  1.244129  -0.462018  0.000000
  0.000000  0.000000  0.000000


  -0.322963  0.939657  0.000000
  0.939657  -1.483815  0.000000
  0.000000  0.000000  0.000000


  -0.298054  0.846672  0.000000
  0.846672  -1.700118  0.000000
  0.000000  0.000000  0.000000


  -0.159514  0.709141  0.000000
  0.709141  -1.918711  0.000000
  0.000000  0.000000  0.000000


  -0.274174  1.204981  0.000000
  1.204981  -0.878550  0.000000
  0.000000  0.000000  0.000000


  6.281588  -4.152505  0.000000
  -4.152505  1.811997  0.000000
  0.000000  0.000000  0.000000


  3.225671  -0.793874  0.000000
  -0.793874  -0.709026  0.000000
  0.000000  0.000000  0.000000


  5.591274  0.024058  0.000000
  0.024058  -0.999808  0.000000
  0.000000  0.000000  0.000000


  -0.302492  0.766007  0.000000
  0.766007  0.541372  0.000000
  0.000000  0.000000  0.000000


  -0.300526  0.746967  0.000000
  0.746967  0.435647  0.000000
  0.000000  0.000000  0.000000


  -2.300961  1.649100  0.000000
  1.649100  -0.737930  0.000000
  0.000000  0.000000  0.000000


  14.171908  -5.449221  0.000000
  -5.449221  1.969014  0.000000
  0.000000  0.000000  0.000000


  15.811741  -6.257366  0.000000
  -6.257366  1.301529  0.000000
  0.000000  0.000000  0.000000


  15.474986  -6.425390  0.000000
  -6.425390  1.646413  0.000000
  0.000000  0.000000  0.000000


  -16.346787  1.531543  0.000000
  1.531543  -1.996962  0.000000
  0.000000  0.000000  0.000000


  0.918147  -3.195127  0.000000
  -3.195127  3.774862  0.000000
  0.000000  0.000000  0.000000


  11.241374  -4.534190  0.000000
  -4.534190  1.253860  0.000000
  0.000000  0.000000  0.000000


  -8.571920  2.880697  0.000000
  2.880697  -2.877932  0.000000
  0.000000  0.000000  0.000000


  -15.141031  5.972506  0.000000
  5.972506  -3.706430  0.000000
  0.000000  0.000000  0.000000


  -2.593892  3.745323  0.000000
  3.745323  -6.210755  0.000000
  0.000000  0.000000  0.000000


  -2.205629  3.645571  0.000000
  3.645571  -7.052556  0.000000
  0.000000  0.000000  0.000000


  -13.409192  6.099283  0.000000
  6.099283  -4.168102  0.000000
  0.000000  0.000000  0.000000


  -15.717496  7.220219  0.000000
  7.220219  -3.873590  0.000000
  0.000000  0.000000  0.000000


  -14.974257  7.915651  0.000000
  7.915651  -4.814493  0.000000
  0.000000  0.000000  0.000000


  -15.275791  7.130178  0.000000
  7.130178  -3.579824  0.000000
  0.000000  0.000000  0.000000


  -4.516694  0.329945  0.000000
  0.329945  -0.888191  0.000000
  0.000000  0.000000  0.000000


  -11.868034  6.008254  0.000000
  6.008254  -3.910937  0.000000
  0.000000  0.000000  0.000000


  -7.700755  7.103747  0.000000
  7.103747  -7.718389  0.000000
  0.000000  0.000000  0.000000


  -0.466664  1.552687  0.000000
  1.552687  0.305410  0.000000
  0.000000  0.000000  0.000000


  1.868146  -4.228637  0.000000
  -4.228637  6.012657  0.000000
  0.000000  0.000000  0.000000


  1.193307  -2.753363  0.000000
  -2.753363  4.134484  0.000000
  0.000000  0.000000  0.000000


  18.968026  -1.851038  0.000000
  -1.851038  -0.804732  0.000000
  0.000000  0.000000  0.000000


  17.076741  -1.182999  0.000000
  -1.182999  0.172335  0.000000
  0.000000  0.000000  0.000000


  15.736838  -4.342080  0.000000
  -4.342080  0.051005  0.000000
  0.000000  0.000000  0.000000


  -0.962132  1.603880  0.000000
  1.603880  -0.808774  0.000000
  0.000000  0.000000  0.000000


  17.987054  -4.251750  0.000000
  -4.251750  -0.321423  0.000000
  0.000000  0.000000  0.000000


  1.800723  -2.745993  0.000000
  -2.745993  0.093861  0.000000
  0.000000  0.000000  0.000000


  10.784778  -2.832760  0.000000
  -2.832760  0.009371  0.000000
  0.000000  0.000000  0.000000


  7.423529  -5.568495  0.000000
  -5.568495  3.623071  0.000000
  0.000000  0.000000  0.000000


  8.198360  -6.699268  0.000000
  -6.699268  3.657438  0.000000
  0.000000  0.000000  0.000000


  -1.982658  2.993786  0.000000
  2.993786  -5.797345  0.000000
  0.000000  0.000000  0.000000


  -1.331372  -0.726810  0.000000
  -0.726810  -0.971268  0.000000
  0.000000  0.000000  0.000000


  -0.190347  -1.212819  0.000000
  -1.212819  5.475173  0.000000
  0.000000  0.000000  0.000000


  -3.905995  2.830631  0.000000
  2.830631  -2.642671  0.000000
  0.000000  0.000000  0.000000


  -0.205692  0.284904  0.000000
  0.284904  2.209375  0.000000
  0.000000  0.000000  0.000000


  -3.981522  0.670366  0.000000
  0.670366  -1.076115  0.000000
  0.000000  0.000000  0.000000


  6.189901  -2.549861  0.000000
  -2.549861  0.070359  0.000000
  0.000000  0.000000  0.000000


  -4.583329  4.397842  0.000000
  4.397842  -5.265629  0.000000
  0.000000  0.000000  0.000000


  1.425706  -1.806745  0.000000
  -1.806745  -0.776809  0.000000
  0.000000  0.000000  0.000000


  0.466363  -2.326628  0.000000
  -2.326628  6.708070  0.000000
  0.000000  0.000000  0.000000


  7.518942  -7.028280  0.000000
  -7.028280  5.007237  0.000000
  0.000000  0.000000  0.000000


  7.873202  -1.153013  0.000000
  -1.153013  -0.457390  0.000000
  0.000000  0.000000  0.000000


  -0.418107  -1.480062  0.000000
  -1.480062  2.386297  0.000000
  0.000000  0.000000  0.000000


  1.384148  -0.878213  0.000000
  -0.878213  -0.734313  0.000000
  0.000000  0.000000  0.000000


  -2.669565  2.575882  0.000000
  2.575882  -2.633415  0.000000
  0.000000  0.000000  0.000000


  -2.257115  2.352014  0.000000
  2.352014  -3.567314  0.000000
  0.000000  0.000000  0.000000


  -2.514624  2.311350  0.000000
  2.311350  -2.659697  0.000000
  0.000000  0.000000  0.000000


  -8.861785  0.706300  0.000000
  0.706300  -0.919891  0.000000
  0.000000  0.000000  0.000000


  -6.680828  0.145587  0.000000
  0.145587  -1.910303  0.000000
  0.000000  0.000000  0.000000


  -0.815757  -0.330427  0.000000
  -0.330427  3.726628  0.000000
  0.000000  0.000000  0.000000


  4.883307  -6.583145  0.000000
  -6.583145  6.921651  0.000000
  0.000000  0.000000  0.000000


  -2.323011  3.207974  0.000000
  3.207974  -5.585660  0.000000
  0.000000  0.000000  0.000000


  -2.244144  3.708531  0.000000
  3.708531  -6.687084  0.000000
  0.000000  0.000000  0.000000


  -3.663593  3.178555  0.000000
  3.178555  -4.378783  0.000000
  0.000000  0.000000  0.000000


  -4.177549  3.815762  0.000000
  3.815762  -4.145276  0.000000
  0.000000  0.000000  0.000000


  -3.540291  2.936580  0.000000
  2.936580  -4.246677  0.000000
  0.000000  0.000000  0.000000


  -3.896504  3.989027  0.000000
  3.989027  -4.299655  0.000000
  0.000000  0.000000  0.000000


  10.859311  -6.146383  0.000000
  -6.146383  2.046807  0.000000
  0.000000  0.000000  0.000000


  9.654386  -6.038645  0.000000
  -6.038645  2.746053  0.000000
  0.000000  0.000000  0.000000


  11.112891  -5.843750  0.000000
  -5.843750  2.392631  0.000000
  0.000000  0.000000  0.000000


  12.157447  -6.882813  0.000000
  -6.882813  2.770562  0.000000
  0.000000  0.000000  0.000000


  11.920535  -6.904880  0.000000
  -6.904880  3.369592  0.000000
  0.000000  0.000000  0.000000


  12.870620  -6.149569  0.000000
  -6.149569  2.926837  0.000000
  0.000000  0.000000  0.000000


  12.309619  -6.816601  0.000000
  -6.816601  2.427386  0.000000
  0.000000  0.000000  0.000000


  7.880816  -4.581633  0.000000
  -4.581633  1.967687  0.000000
  0.000000  0.000000  0.000000


  -3.137775  2.973347  0.000000
  2.973347  -3.310792  0.000000
  0.000000  0.000000  0.000000


  -2.724846  2.888771  0.000000
  2.888771  -4.329907  0.000000
  0.000000  0.000000  0.000000


  0.043702  -0.131416  0.000000
  -0.131416  -1.134554  0.000000
  0.000000  0.000000  0.000000


  -0.714139  -1.061110  0.000000
  -1.061110  -1.317189  0.000000
  0.000000  0.000000  0.000000


  -18.799711  6.310856  0.000000
  6.310856  -2.670329  0.000000
  0.000000  0.000000  0.000000


  -16.563666  5.105254  0.000000
  5.105254  -2.915672  0.000000
  0.000000  0.000000  0.000000


  -16.350419  5.404297  0.000000
  5.404297  -2.540535  0.000000
  0.000000  0.000000  0.000000


  -18.895878  6.136211  0.000000
  6.136211  -2.889820  0.000000
  0.000000  0.000000  0.000000


  -21.599423  2.173281  0.000000
  2.173281  -1.073538  0.000000
  0.000000  0.000000  0.000000


  12.712933  -0.894435  0.000000
  -0.894435  -0.326528  0.000000
  0.000000  0.000000  0.000000


  -1.199416  0.774181  0.000000
  0.774181  0.601583  0.000000
  0.000000  0.000000  0.000000


  -1.328040  0.281521  0.000000
  0.281521  1.157494  0.000000
  0.000000  0.000000  0.000000


  -11.631189  4.847180  0.000000
  4.847180  -3.762353  0.000000
  0.000000  0.000000  0.000000


  11.199245  -1.513600  0.000000
  -1.513600  -1.266159  0.000000
  0.000000  0.000000  0.000000


  9.253559  -1.020951  0.000000
  -1.020951  -0.574441  0.000000
  0.000000  0.000000  0.000000


  -7.437563  7.010612  0.000000
  7.010612  -7.575015  0.000000
  0.000000  0.000000  0.000000


  -0.414425  1.314198  0.000000
  1.314198  -0.767522  0.000000
  0.000000  0.000000  0.000000


  -19.113003  2.629777  0.000000
  2.629777  -1.530683  0.000000
  0.000000  0.000000  0.000000


  4.359674  -6.599989  0.000000
  -6.599989  8.234797  0.000000
  0.000000  0.000000  0.000000


  -3.468902  3.273767  0.000000
  3.273767  -3.635895  0.000000
  0.000000  0.000000  0.000000


  5.382213  -3.084106  0.000000
  -3.084106  -0.287619  0.000000
  0.000000  0.000000  0.000000


  3.206420  -3.341538  0.000000
  -3.341538  1.713469  0.000000
  0.000000  0.000000  0.000000


  2.414125  -0.309388  0.000000
  -0.309388  -1.029726  0.000000
  0.000000  0.000000  0.000000


  -5.335035  6.260689  0.000000
  6.260689  -8.000869  0.000000
  0.000000  0.000000  0.000000


  -4.916595  5.440204  0.000000
  5.440204  -7.795406  0.000000
  0.000000  0.000000  0.000000


  -5.715302  6.807161  0.000000
  6.807161  -8.391672  0.000000
  0.000000  0.000000  0.000000


  -4.861250  6.099526  0.000000
  6.099526  -8.787701  0.000000
  0.000000  0.000000  0.000000


  10.743080  -1.916622  0.000000
  -1.916622  -0.303591  0.000000
  0.000000  0.000000  0.000000


  -2.431005  1.971812  0.000000
  1.971812  -1.381030  0.000000
  0.000000  0.000000  0.000000


  -0.158633  -0.761079  0.000000
  -0.761079  -0.576845  0.000000
  0.000000  0.000000  0.000000


  7.472160  -6.555346  0.000000
  -6.555346  3.882787  0.000000
  0.000000  0.000000  0.000000


  -1.928224  1.266480  0.000000
  1.266480  -0.184884  0.000000
  0.000000  0.000000  0.000000


  -4.549204  0.498122  0.000000
  0.498122  -0.533279  0.000000
  0.000000  0.000000  0.000000


  5.169632  -4.385036  0.000000
  -4.385036  1.832905  0.000000
  0.000000  0.000000  0.000000


  11.988684  -8.638455  0.000000
  -8.638455  5.171382  0.000000
  0.000000  0.000000  0.000000


  1.216722  -2.877654  0.000000
  -2.877654  4.065857  0.000000
  0.000000  0.000000  0.000000


  10.971810  -3.397344  0.000000
  -3.397344  0.466887  0.000000
  0.000000  0.000000  0.000000


  -0.490498  -0.942968  0.000000
  -0.942968  3.955849  0.000000
  0.000000  0.000000  0.000000


  -0.756833  -0.374279  0.000000
  -0.374279  3.685918  0.000000
  0.000000  0.000000  0.000000


  -18.589195  5.251156  0.000000
  5.251156  -2.069076  0.000000
  0.000000  0.000000  0.000000


  -18.470045  5.937971  0.000000
  5.937971  -2.794762  0.000000
  0.000000  0.000000  0.000000


  -16.421657  4.426700  0.000000
  4.426700  -2.585180  0.000000
  0.000000  0.000000  0.000000


  -18.521307  5.871869  0.000000
  5.871869  -2.233683  0.000000
  0.000000  0.000000  0.000000


  -16.488266  5.015704  0.000000
  5.015704  -2.639203  0.000000
  0.000000  0.000000  0.000000


  -22.074383  6.712598  0.000000
  6.712598  -2.613805  0.000000
  0.000000  0.000000  0.000000


  -18.375243  5.741613  0.000000
  5.741613  -2.975390  0.000000
  0.000000  0.000000  0.000000


  -18.298431  6.309147  0.000000
  6.309147  -2.719112  0.000000
  0.000000  0.000000  0.000000


  -0.151695  -1.199954  0.000000
  -1.199954  5.443151  0.000000
  0.000000  0.000000  0.000000


  -6.234530  2.116523  0.000000
  2.116523  -2.451924  0.000000
  0.000000  0.000000  0.000000


  -9.604708  5.646748  0.000000
  5.646748  -4.287101  0.000000
  0.000000  0.000000  0.000000


  -0.384302  1.590421  0.000000
  1.590421  0.112087  0.000000
  0.000000  0.000000  0.000000


  -5.134325  0.006408  0.000000
  0.006408  -1.222376  0.000000
  0.000000  0.000000  0.000000


  -0.316425  0.024311  0.000000
  0.024311  3.318174  0.000000
  0.000000  0.000000  0.000000


  20.997486  -2.431601  0.000000
  -2.431601  -0.547729  0.000000
  0.000000  0.000000  0.000000


  -9.982318  4.209473  0.000000
  4.209473  -2.463451  0.000000
  0.000000  0.000000  0.000000


  2.375512  -4.896742  0.000000
  -4.896742  7.013346  0.000000
  0.000000  0.000000  0.000000


  -1.612199  -0.160914  0.000000
  -0.160914  -0.892981  0.000000
  0.000000  0.000000  0.000000


  8.736322  -1.582543  0.000000
  -1.582543  -0.479711  0.000000
  0.000000  0.000000  0.000000


  0.362142  -1.820100  0.000000
  -1.820100  5.647353  0.000000
  0.000000  0.000000  0.000000


  13.028154  -4.543255  0.000000
  -4.543255  0.525572  0.000000
  0.000000  0.000000  0.000000


  11.424071  -4.100658  0.000000
  -4.100658  1.309021  0.000000
  0.000000  0.000000  0.000000


  12.658190  -5.354278  0.000000
  -5.354278  0.992494  0.000000
  0.000000  0.000000  0.000000


  -0.033276  -2.303875  0.000000
  -2.303875  2.756195  0.000000
  0.000000  0.000000  0.000000


  -0.008311  -2.061813  0.000000
  -2.061813  3.163037  0.000000
  0.000000  0.000000  0.000000


  -0.281456  -1.392131  0.000000
  -1.392131  2.170461  0.000000
  0.000000  0.000000  0.000000


  -0.063117  -2.425107  0.000000
  -2.425107  2.803672  0.000000
  0.000000  0.000000  0.000000


  -9.253685  3.676194  0.000000
  3.676194  -2.429271  0.000000
  0.000000  0.000000  0.000000


  -4.030332  4.480672  0.000000
  4.480672  -5.948714  0.000000
  0.000000  0.000000  0.000000


  -4.787780  4.929470  0.000000
  4.929470  -5.908247  0.000000
  0.000000  0.000000  0.000000


  -0.605364  -0.318673  0.000000
  -0.318673  3.289970  0.000000
  0.000000  0.000000  0.000000


  -0.296124  1.226536  0.000000
  1.226536  -1.678774  0.000000
  0.000000  0.000000  0.000000


  -0.772567  0.076391  0.000000
  0.076391  2.563629  0.000000
  0.000000  0.000000  0.000000


  10.191972  -8.108673  0.000000
  -8.108673  4.781359  0.000000
  0.000000  0.000000  0.000000


  6.626989  0.038913  0.000000
  0.038913  -0.741970  0.000000
  0.000000  0.000000  0.000000


  -0.318377  0.424164  0.000000
  0.424164  2.472997  0.000000
  0.000000  0.000000  0.000000


  -0.331757  0.635222  0.000000
  0.635222  2.062238  0.000000
  0.000000  0.000000  0.000000


  -15.921316  0.362081  0.000000
  0.362081  -0.529225  0.000000
  0.000000  0.000000  0.000000


  -17.566374  1.534395  0.000000
  1.534395  -0.380073  0.000000
  0.000000  0.000000  0.000000


  -13.835366  1.211083  0.000000
  1.211083  -1.267378  0.000000
  0.000000  0.000000  0.000000


  -1.849832  3.198777  0.000000
  3.198777  -6.887798  0.000000
  0.000000  0.000000  0.000000


  15.229596  -3.936493  0.000000
  -3.936493  0.800505  0.000000
  0.000000  0.000000  0.000000


  -0.159935  -1.340341  0.000000
  -1.340341  5.576878  0.000000
  0.000000  0.000000  0.000000


  21.258792  -1.649439  0.000000
  -1.649439  -0.689110  0.000000
  0.000000  0.000000  0.000000


  -2.316413  1.016388  0.000000
  1.016388  0.513436  0.000000
  0.000000  0.000000  0.000000


  6.653787  -1.723859  0.000000
  -1.723859  -1.295079  0.000000
  0.000000  0.000000  0.000000


  0.143734  -1.925762  0.000000
  -1.925762  3.620596  0.000000
  0.000000  0.000000  0.000000


  1.555519  -1.797674  0.000000
  -1.797674  -0.828469  0.000000
  0.000000  0.000000  0.000000


  -2.221946  0.556994  0.000000
  0.556994  0.799971  0.000000
  0.000000  0.000000  0.000000


  -9.941281  5.125052  0.000000
  5.125052  -3.499112  0.000000
  0.000000  0.000000  0.000000


  -9.869388  4.920083  0.000000
  4.920083  -4.165203  0.000000
  0.000000  0.000000  0.000000


  -11.627345  5.909017  0.000000
  5.909017  -3.601470  0.000000
  0.000000  0.000000  0.000000


  -3.128421  3.796947  0.000000
  3.796947  -6.133036  0.000000
  0.000000  0.000000  0.000000


  7.992681  -7.066143  0.000000
  -7.066143  4.850083  0.000000
  0.000000  0.000000  0.000000


  17.743051  -6.743700  0.000000
  -6.743700  1.739953  0.000000
  0.000000  0.000000  0.000000


  -1.714565  0.047307  0.000000
  0.047307  -1.117320  0.000000
  0.000000  0.000000  0.000000


  -3.211938  0.265408  0.000000
  0.265408  -1.519348  0.000000
  0.000000  0.000000  0.000000


  -4.890390  1.187030  0.000000
  1.187030  -1.135951  0.000000
  0.000000  0.000000  0.000000


  4.720676  -6.536915  0.000000
  -6.536915  7.144403  0.000000
  0.000000  0.000000  0.000000


  15.736907  -3.653685  0.000000
  -3.653685  -0.154107  0.000000
  0.000000  0.000000  0.000000


  4.057479  -1.995861  0.000000
  -1.995861  -0.117981  0.000000
  0.000000  0.000000  0.000000


  5.846483  -3.016866  0.000000
  -3.016866  -0.436674  0.000000
  0.000000  0.000000  0.000000


  8.063469  -5.989619  0.000000
  -5.989619  2.726138  0.000000
  0.000000  0.000000  0.000000


  -16.461816  5.427826  0.000000
  5.427826  -2.503373  0.000000
  0.000000  0.000000  0.000000


  10.772064  -0.639478  0.000000
  -0.639478  -0.512898  0.000000
  0.000000  0.000000  0.000000


  -1.236890  0.211268  0.000000
  0.211268  1.135849  0.000000
  0.000000  0.000000  0.000000


  13.259858  -1.609624  0.000000
  -1.609624  -1.145446  0.000000
  0.000000  0.000000  0.000000


  13.300267  -1.403923  0.000000
  -1.403923  -0.237055  0.000000
  0.000000  0.000000  0.000000


  11.436302  -1.129698  0.000000
  -1.129698  -0.491236  0.000000
  0.000000  0.000000  0.000000


  -0.105076  0.213678  0.000000
  0.213678  1.279006  0.000000
  0.000000  0.000000  0.000000


  18.731349  -2.555125  0.000000
  -2.555125  -0.874855  0.000000
  0.000000  0.000000  0.000000


  -0.947774  1.681314  0.000000
  1.681314  -1.339449  0.000000
  0.000000  0.000000  0.000000


  8.583517  -5.019014  0.000000
  -5.019014  2.267671  0.000000
  0.000000  0.000000  0.000000


  4.351222  -2.008033  0.000000
  -2.008033  -0.162469  0.000000
  0.000000  0.000000  0.000000


  8.046810  -0.675316  0.000000
  -0.675316  -0.542433  0.000000
  0.000000  0.000000  0.000000


  -10.132922  3.844855  0.000000
  3.844855  -3.334082  0.000000
  0.000000  0.000000  0.000000


  1.216833  -3.195802  0.000000
  -3.195802  3.624869  0.000000
  0.000000  0.000000  0.000000


  16.011750  -7.697922  0.000000
  -7.697922  2.702685  0.000000
  0.000000  0.000000  0.000000


  2.904259  -4.288508  0.000000
  -4.288508  5.533359  0.000000
  0.000000  0.000000  0.000000


  -0.232279  0.544014  0.000000
  0.544014  1.994644  0.000000
  0.000000  0.000000  0.000000


  18.987942  -1.962660  0.000000
  -1.962660  -0.985328  0.000000
  0.000000  0.000000  0.000000


  10.634316  -7.351302  0.000000
  -7.351302  3.185346  0.000000
  0.000000  0.000000  0.000000


  -6.781876  6.696419  0.000000
  6.696419  -7.657528  0.000000
  0.000000  0.000000  0.000000


  -10.465390  0.749587  0.000000
  0.749587  -1.690911  0.000000
  0.000000  0.000000  0.000000


  -2.240234  3.743636  0.000000
  3.743636  -6.332450  0.000000
  0.000000  0.000000  0.000000


  0.397250  -2.330020  0.000000
  -2.330020  4.862044  0.000000
  0.000000  0.000000  0.000000


  11.122980  -4.661154  0.000000
  -4.661154  0.340745  0.000000
  0.000000  0.000000  0.000000


  -0.316035  1.209333  0.000000
  1.209333  -0.631959  0.000000
  0.000000  0.000000  0.000000


  -9.286235  0.432827  0.000000
  0.432827  -1.546439  0.000000
  0.000000  0.000000  0.000000


  7.291393  -3.680059  0.000000
  -3.680059  -0.039128  0.000000
  0.000000  0.000000  0.000000


  5.662196  -2.651493  0.000000
  -2.651493  0.290852  0.000000
  0.000000  0.000000  0.000000


  -18.784160  1.585773  0.000000
  1.585773  -1.478571  0.000000
  0.000000  0.000000  0.000000


  -0.305743  -0.386570  0.000000
  -0.386570  4.243398  0.000000
  0.000000  0.000000  0.000000


  3.200304  -2.700290  0.000000
  -2.700290  1.023624  0.000000
  0.000000  0.000000  0.000000


  4.630468  -3.985856  0.000000
  -3.985856  0.708210  0.000000
  0.000000  0.000000  0.000000


  11.145297  -0.818955  0.000000
  -0.818955  -0.204057  0.000000
  0.000000  0.000000  0.000000


  4.660942  -3.745673  0.000000
  -3.745673  1.819789  0.000000
  0.000000  0.000000  0.000000


  -8.424714  7.452451  0.000000
  7.452451  -7.382194  0.000000
  0.000000  0.000000  0.000000


  -9.091529  7.393193  0.000000
  7.393193  -7.195646  0.000000
  0.000000  0.000000  0.000000


  -2.257946  3.043920  0.000000
  3.043920  -5.141020  0.000000
  0.000000  0.000000  0.000000


  -2.903408  2.131787  0.000000
  2.131787  -2.852177  0.000000
  0.000000  0.000000  0.000000


  0.873711  -2.710163  0.000000
  -2.710163  4.288272  0.000000
  0.000000  0.000000  0.000000


  3.684235  -3.028636  0.000000
  -3.028636  0.278479  0.000000
  0.000000  0.000000  0.000000


  -7.566751  3.842201  0.000000
  3.842201  -3.086520  0.000000
  0.000000  0.000000  0.000000


  -6.950770  2.180605  0.000000
  2.180605  -2.516047  0.000000
  0.000000  0.000000  0.000000


  -0.453080  1.424338  0.000000
  1.424338  -0.709807  0.000000
  0.000000  0.000000  0.000000


  -0.531391  1.479006  0.000000
  1.479006  -0.747336  0.000000
  0.000000  0.000000  0.000000


  -0.475025  1.527276  0.000000
  1.527276  -0.800732  0.000000
  0.000000  0.000000  0.000000


  -0.420033  1.494340  0.000000
  1.494340  -0.788742  0.000000
  0.000000  0.000000  0.000000


  -22.881287  3.671159  0.000000
  3.671159  -1.223353  0.000000
  0.000000  0.000000  0.000000


  -18.549863  4.072666  0.000000
  4.072666  -2.207830  0.000000
  0.000000  0.000000  0.000000


  -0.424975  1.570752  0.000000
  1.570752  -0.528068  0.000000
  0.000000  0.000000  0.000000


  -0.461385  1.438117  0.000000
  1.438117  -0.466619  0.000000
  0.000000  0.000000  0.000000


  0.426189  -3.065956  0.000000
  -3.065956  4.166690  0.000000
  0.000000  0.000000  0.000000


  0.368467  -1.963524  0.000000
  -1.963524  3.104196  0.000000
  0.000000  0.000000  0.000000


  -17.852775  4.054269  0.000000
  4.054269  -1.630656  0.000000
  0.000000  0.000000  0.000000


  9.848045  -7.102735  0.000000
  -7.102735  3.786661  0.000000
  0.000000  0.000000  0.000000


  8.387872  -6.309964  0.000000
  -6.309964  4.368835  0.000000
  0.000000  0.000000  0.000000


  -5.440434  1.368202  0.000000
  1.368202  -2.147814  0.000000
  0.000000  0.000000  0.000000


  -0.448515  1.333346  0.000000
  1.333346  0.682950  0.000000
  0.000000  0.000000  0.000000


  7.996445  -4.833591  0.000000
  -4.833591  2.080642  0.000000
  0.000000  0.000000  0.000000


  1.198722  -3.128763  0.000000
  -3.128763  4.072203  0.000000
  0.000000  0.000000  0.000000


  1.242110  -3.269711  0.000000
  -3.269711  3.702408  0.000000
  0.000000  0.000000  0.000000


  -3.451130  2.449847  0.000000
  2.449847  -3.080289  0.000000
  0.000000  0.000000  0.000000


  9.532903  -5.492033  0.000000
  -5.492033  1.550856  0.000000
  0.000000  0.000000  0.000000


  -2.706453  2.154097  0.000000
  2.154097  -1.667170  0.000000
  0.000000  0.000000  0.000000


  -0.195232  1.527507  0.000000
  1.527507  -0.053375  0.000000
  0.000000  0.000000  0.000000


  -21.909916  3.343356  0.000000
  3.343356  -1.376623  0.000000
  0.000000  0.000000  0.000000


  10.077886  -7.041162  0.000000
  -7.041162  3.740981  0.000000
  0.000000  0.000000  0.000000


  13.844366  -8.272102  0.000000
  -8.272102  4.120012  0.000000
  0.000000  0.000000  0.000000


  -7.406545  0.869449  0.000000
  0.869449  -0.247906  0.000000
  0.000000  0.000000  0.000000


  6.764721  -2.313096  0.000000
  -2.313096  -0.358429  0.000000
  0.000000  0.000000  0.000000


  -2.749401  2.448048  0.000000
  2.448048  -2.411111  0.000000
  0.000000  0.000000  0.000000


  14.150528  -5.308401  0.000000
  -5.308401  0.766798  0.000000
  0.000000  0.000000  0.000000


  13.343944  -4.235147  0.000000
  -4.235147  0.124117  0.000000
  0.000000  0.000000  0.000000


  13.785609  -3.712109  0.000000
  -3.712109  0.502720  0.000000
  0.000000  0.000000  0.000000


  6.045175  -2.071823  0.000000
  -2.071823  -1.027129  0.000000
  0.000000  0.000000  0.000000


  15.481110  -2.023398  0.000000
  -2.023398  -0.602150  0.000000
  0.000000  0.000000  0.000000


  -0.091948  0.606440  0.000000
  0.606440  1.173780  0.000000
  0.000000  0.000000  0.000000


  3.751081  -2.065985  0.000000
  -2.065985  -0.011119  0.000000
  0.000000  0.000000  0.000000


  -0.198348  1.289226  0.000000
  1.289226  -0.245975  0.000000
  0.000000  0.000000  0.000000


  6.196913  -2.953406  0.000000
  -2.953406  -0.526069  0.000000
  0.000000  0.000000  0.000000


  -1.239668  -0.025204  0.000000
  -0.025204  1.490590  0.000000
  0.000000  0.000000  0.000000


  2.149737  -3.705945  0.000000
  -3.705945  4.749938  0.000000
  0.000000  0.000000  0.000000


  -1.164977  -0.041382  0.000000
  -0.041382  0.833896  0.000000
  0.000000  0.000000  0.000000


  -3.655717  3.156542  0.000000
  3.156542  -3.354659  0.000000
  0.000000  0.000000  0.000000


  3.634887  -0.495289  0.000000
  -0.495289  -0.508896  0.000000
  0.000000  0.000000  0.000000


  -5.410901  7.023553  0.000000
  7.023553  -9.373137  0.000000
  0.000000  0.000000  0.000000


  -0.976975  -0.109508  0.000000
  -0.109508  3.181717  0.000000
  0.000000  0.000000  0.000000


  -0.619660  -0.151270  0.000000
  -0.151270  3.121396  0.000000
  0.000000  0.000000  0.000000


  4.314529  -2.407066  0.000000
  -2.407066  -0.781778  0.000000
  0.000000  0.000000  0.000000


  4.574624  -1.958795  0.000000
  -1.958795  -0.194004  0.000000
  0.000000  0.000000  0.000000


  -16.403023  1.404119  0.000000
  1.404119  -0.600285  0.000000
  0.000000  0.000000  0.000000


  -6.499648  2.173010  0.000000
  2.173010  -2.487461  0.000000
  0.000000  0.000000  0.000000


  -0.293585  -0.585047  0.000000
  -0.585047  3.773656  0.000000
  0.000000  0.000000  0.000000


  8.207690  -5.055302  0.000000
  -5.055302  1.550953  0.000000
  0.000000  0.000000  0.000000


  -0.108477  0.471248  0.000000
  0.471248  1.775446  0.000000
  0.000000  0.000000  0.000000


  -21.380432  2.547929  0.000000
  2.547929  -0.927427  0.000000
  0.000000  0.000000  0.000000


  -21.515302  2.182939  0.000000
  2.182939  -1.129289  0.000000
  0.000000  0.000000  0.000000


  -2.194028  0.496469  0.000000
  0.496469  -1.545978  0.000000
  0.000000  0.000000  0.000000


  -2.050638  0.851353  0.000000
  0.851353  -0.696176  0.000000
  0.000000  0.000000  0.000000


  15.983085  -3.820768  0.000000
  -3.820768  0.389426  0.000000
  0.000000  0.000000  0.000000


  -0.390440  1.392391  0.000000
  1.392391  -0.938151  0.000000
  0.000000  0.000000  0.000000


  1.697952  -1.224475  0.000000
  -1.224475  -1.783671  0.000000
  0.000000  0.000000  0.000000


  -13.668530  2.564951  0.000000
  2.564951  -2.012159  0.000000
  0.000000  0.000000  0.000000


  -16.551244  7.539590  0.000000
  7.539590  -4.278062  0.000000
  0.000000  0.000000  0.000000


  17.000591  -5.075769  0.000000
  -5.075769  0.486266  0.000000
  0.000000  0.000000  0.000000


  14.504491  -4.883152  0.000000
  -4.883152  1.222513  0.000000
  0.000000  0.000000  0.000000


  -14.425063  9.639468  0.000000
  9.639468  -6.967676  0.000000
  0.000000  0.000000  0.000000


  -9.450418  8.886770  0.000000
  8.886770  -8.714944  0.000000
  0.000000  0.000000  0.000000


  -25.267741  1.560098  0.000000
  1.560098  -0.231787  0.000000
  0.000000  0.000000  0.000000


  -0.036408  0.650061  0.000000
  0.650061  -1.095418  0.000000
  0.000000  0.000000  0.000000


  -18.772577  8.607076  0.000000
  8.607076  -4.446624  0.000000
  0.000000  0.000000  0.000000


  -0.744872  2.019916  0.000000
  2.019916  -5.671227  0.000000
  0.000000  0.000000  0.000000


  -25.685609  2.103811  0.000000
  2.103811  -0.481164  0.000000
  0.000000  0.000000  0.000000


  -3.180058  5.183846  0.000000
  5.183846  -9.536526  0.000000
  0.000000  0.000000  0.000000


  -3.346848  5.616166  0.000000
  5.616166  -9.077037  0.000000
  0.000000  0.000000  0.000000


  -19.277350  8.571048  0.000000
  8.571048  -4.242052  0.000000
  0.000000  0.000000  0.000000


  0.294670  0.803211  0.000000
  0.803211  -0.387586  0.000000
  0.000000  0.000000  0.000000


  -5.269875  6.943284  0.000000
  6.943284  -10.096763  0.000000
  0.000000  0.000000  0.000000


  -5.683928  7.322752  0.000000
  7.322752  -9.341853  0.000000
  0.000000  0.000000  0.000000


  -25.525218  0.991453  0.000000
  0.991453  0.285272  0.000000
  0.000000  0.000000  0.000000


  -0.813983  2.125528  0.000000
  2.125528  -5.883778  0.000000
  0.000000  0.000000  0.000000


  -1.612990  3.242985  0.000000
  3.242985  -7.063784  0.000000
  0.000000  0.000000  0.000000


  -1.371550  3.309160  0.000000
  3.309160  -7.737481  0.000000
  0.000000  0.000000  0.000000


  -0.125657  0.692377  0.000000
  0.692377  -1.770073  0.000000
  0.000000  0.000000  0.000000


  -4.394708  6.545970  0.000000
  6.545970  -10.086107  0.000000
  0.000000  0.000000  0.000000


  -5.080715  6.694961  0.000000
  6.694961  -9.074919  0.000000
  0.000000  0.000000  0.000000


  -0.511248  1.540886  0.000000
  1.540886  -4.706549  0.000000
  0.000000  0.000000  0.000000


  -18.432452  8.520865  0.000000
  8.520865  -4.615727  0.000000
  0.000000  0.000000  0.000000


  -14.731985  7.436865  0.000000
  7.436865  -5.080429  0.000000
  0.000000  0.000000  0.000000


  -25.414015  2.358349  0.000000
  2.358349  -0.658790  0.000000
  0.000000  0.000000  0.000000


  0.054228  0.624723  0.000000
  0.624723  -0.973094  0.000000
  0.000000  0.000000  0.000000


  0.012424  0.499522  0.000000
  0.499522  -0.359701  0.000000
  0.000000  0.000000  0.000000


  -0.044399  0.699220  0.000000
  0.699220  -0.372944  0.000000
  0.000000  0.000000  0.000000


  0.076165  0.738924  0.000000
  0.738924  -0.706741  0.000000
  0.000000  0.000000  0.000000


  -14.805771  9.705120  0.000000
  9.705120  -6.769979  0.000000
  0.000000  0.000000  0.000000


  -19.695109  8.347476  0.000000
  8.347476  -4.114099  0.000000
  0.000000  0.000000  0.000000


  -0.128279  0.719536  0.000000
  0.719536  -2.372782  0.000000
  0.000000  0.000000  0.000000


  -0.177656  0.725696  0.000000
  0.725696  -1.932520  0.000000
  0.000000  0.000000  0.000000


  -20.201647  8.216321  0.000000
  8.216321  -3.736125  0.000000
  0.000000  0.000000  0.000000


  -0.559799  1.673565  0.000000
  1.673565  -4.900496  0.000000
  0.000000  0.000000  0.000000


  -8.288753  8.484481  0.000000
  8.484481  -9.320087  0.000000
  0.000000  0.000000  0.000000


  -3.769060  5.752423  0.000000
  5.752423  -9.402409  0.000000
  0.000000  0.000000  0.000000


  -7.622027  8.215310  0.000000
  8.215310  -9.321650  0.000000
  0.000000  0.000000  0.000000


  -6.820858  7.592993  0.000000
  7.592993  -9.151234  0.000000
  0.000000  0.000000  0.000000


  -6.080310  7.367070  0.000000
  7.367070  -9.651431  0.000000
  0.000000  0.000000  0.000000


  -3.216363  5.100315  0.000000
  5.100315  -8.554634  0.000000
  0.000000  0.000000  0.000000


  -2.830120  5.128747  0.000000
  5.128747  -9.375452  0.000000
  0.000000  0.000000  0.000000


  -15.117776  10.045858  0.000000
  10.045858  -6.878307  0.000000
  0.000000  0.000000  0.000000


  -15.791897  9.388649  0.000000
  9.388649  -5.762851  0.000000
  0.000000  0.000000  0.000000


  -11.744084  9.374472  0.000000
  9.374472  -8.013979  0.000000
  0.000000  0.000000  0.000000


  -0.275295  -0.303949  0.000000
  -0.303949  3.808884  0.000000
  0.000000  0.000000  0.000000


  -0.209556  0.947781  0.000000
  0.947781  -2.977685  0.000000
  0.000000  0.000000  0.000000


  -0.237082  0.998920  0.000000
  0.998920  -3.261637  0.000000
  0.000000  0.000000  0.000000


  -23.720638  5.660670  0.000000
  5.660670  -2.022444  0.000000
  0.000000  0.000000  0.000000


  -16.591288  9.564547  0.000000
  9.564547  -6.071345  0.000000
  0.000000  0.000000  0.000000


  -16.566832  9.998040  0.000000
  9.998040  -5.761042  0.000000
  0.000000  0.000000  0.000000


  -14.719420  8.163323  0.000000
  8.163323  -5.916804  0.000000
  0.000000  0.000000  0.000000


  -16.182485  9.494832  0.000000
  9.494832  -5.982130  0.000000
  0.000000  0.000000  0.000000


  -6.549055  7.966252  0.000000
  7.966252  -10.045712  0.000000
  0.000000  0.000000  0.000000


  -7.247693  8.101996  0.000000
  8.101996  -9.137849  0.000000
  0.000000  0.000000  0.000000


  -0.859707  2.274486  0.000000
  2.274486  -6.168094  0.000000
  0.000000  0.000000  0.000000


  -4.317108  6.421133  0.000000
  6.421133  -9.423695  0.000000
  0.000000  0.000000  0.000000


  -3.984651  6.064081  0.000000
  6.064081  -9.825803  0.000000
  0.000000  0.000000  0.000000


  -7.831145  8.256631  0.000000
  8.256631  -9.253520  0.000000
  0.000000  0.000000  0.000000


  -20.444696  8.247446  0.000000
  8.247446  -3.767297  0.000000
  0.000000  0.000000  0.000000


  -24.815889  4.099507  0.000000
  4.099507  -1.037217  0.000000
  0.000000  0.000000  0.000000


  -17.910067  9.092595  0.000000
  9.092595  -4.948318  0.000000
  0.000000  0.000000  0.000000


  -17.290360  9.756230  0.000000
  9.756230  -5.793593  0.000000
  0.000000  0.000000  0.000000


  -2.090110  4.035830  0.000000
  4.035830  -8.220681  0.000000
  0.000000  0.000000  0.000000


  -25.534082  2.927565  0.000000
  2.927565  -0.312010  0.000000
  0.000000  0.000000  0.000000


  -25.024639  3.864557  0.000000
  3.864557  -1.115302  0.000000
  0.000000  0.000000  0.000000


  -10.366175  9.097972  0.000000
  9.097972  -8.308231  0.000000
  0.000000  0.000000  0.000000


  -25.440858  2.610198  0.000000
  2.610198  -0.568170  0.000000
  0.000000  0.000000  0.000000


  -1.437504  3.037679  0.000000
  3.037679  -6.922088  0.000000
  0.000000  0.000000  0.000000


  -1.222046  2.745809  0.000000
  2.745809  -6.616879  0.000000
  0.000000  0.000000  0.000000


  -0.605513  1.779761  0.000000
  1.779761  -5.187474  0.000000
  0.000000  0.000000  0.000000


  -0.365530  1.260936  0.000000
  1.260936  -3.845482  0.000000
  0.000000  0.000000  0.000000


  -0.075144  0.504977  0.000000
  0.504977  -1.506123  0.000000
  0.000000  0.000000  0.000000


  -0.436550  1.431336  0.000000
  1.431336  -4.445324  0.000000
  0.000000  0.000000  0.000000


  -8.057186  8.539427  0.000000
  8.539427  -9.408768  0.000000
  0.000000  0.000000  0.000000


  -2.060242  3.979684  0.000000
  3.979684  -8.000088  0.000000
  0.000000  0.000000  0.000000


  -0.399068  1.348628  0.000000
  1.348628  -4.149524  0.000000
  0.000000  0.000000  0.000000


  -4.269467  6.016034  0.000000
  6.016034  -8.959941  0.000000
  0.000000  0.000000  0.000000


  -21.424921  7.551733  0.000000
  7.551733  -2.903793  0.000000
  0.000000  0.000000  0.000000


  -25.562269  2.229404  0.000000
  2.229404  -0.371940  0.000000
  0.000000  0.000000  0.000000


  -1.337918  2.910505  0.000000
  2.910505  -6.888658  0.000000
  0.000000  0.000000  0.000000


  -25.685600  1.687092  0.000000
  1.687092  -0.237188  0.000000
  0.000000  0.000000  0.000000


  -25.817898  1.092688  0.000000
  1.092688  -0.060386  0.000000
  0.000000  0.000000  0.000000


  -22.174798  1.752403  0.000000
  1.752403  -0.902987  0.000000
  0.000000  0.000000  0.000000


  -22.435149  1.031972  0.000000
  1.031972  -0.766885  0.000000
  0.000000  0.000000  0.000000


  -0.208985  0.905501  0.000000
  0.905501  -2.573440  0.000000
  0.000000  0.000000  0.000000


  -19.055385  8.887584  0.000000
  8.887584  -4.220701  0.000000
  0.000000  0.000000  0.000000


  -25.759627  1.830244  0.000000
  1.830244  -0.331255  0.000000
  0.000000  0.000000  0.000000


  -0.947568  2.415881  0.000000
  2.415881  -6.434200  0.000000
  0.000000  0.000000  0.000000


  -20.713708  7.946034  0.000000
  7.946034  -3.446253  0.000000
  0.000000  0.000000  0.000000


  -0.674253  1.896891  0.000000
  1.896891  -5.451493  0.000000
  0.000000  0.000000  0.000000


  -24.876065  3.932193  0.000000
  3.932193  -0.846170  0.000000
  0.000000  0.000000  0.000000


  -1.963580  3.824220  0.000000
  3.824220  -7.848365  0.000000
  0.000000  0.000000  0.000000


  -8.156016  -0.322837  0.000000
  -0.322837  -0.721899  0.000000
  0.000000  0.000000  0.000000


  -2.100435  1.430060  0.000000
  1.430060  -1.572390  0.000000
  0.000000  0.000000  0.000000


  -0.404476  1.489853  0.000000
  1.489853  -0.001889  0.000000
  0.000000  0.000000  0.000000


  -19.630515  5.358864  0.000000
  5.358864  -2.363030  0.000000
  0.000000  0.000000  0.000000


  -2.546501  3.543952  0.000000
  3.543952  -5.455485  0.000000
  0.000000  0.000000  0.000000


  -2.436610  3.008559  0.000000
  3.008559  -5.511415  0.000000
  0.000000  0.000000  0.000000


  6.214836  -4.048041  0.000000
  -4.048041  2.134753  0.000000
  0.000000  0.000000  0.000000


  -8.353970  7.382765  0.000000
  7.382765  -7.642287  0.000000
  0.000000  0.000000  0.000000


  -1.098670  1.504101  0.000000
  1.504101  -0.849323  0.000000
  0.000000  0.000000  0.000000


  -0.181892  1.230825  0.000000
  1.230825  -0.503080  0.000000
  0.000000  0.000000  0.000000


  0.890246  -2.803234  0.000000
  -2.803234  4.302502  0.000000
  0.000000  0.000000  0.000000


  -8.541299  3.129232  0.000000
  3.129232  -2.007821  0.000000
  0.000000  0.000000  0.000000


  -0.338031  0.728649  0.000000
  0.728649  1.824571  0.000000
  0.000000  0.000000  0.000000


  -2.671321  0.948231  0.000000
  0.948231  -0.541146  0.000000
  0.000000  0.000000  0.000000


  -2.019996  3.506850  0.000000
  3.506850  -7.438939  0.000000
  0.000000  0.000000  0.000000


  0.315674  -2.925524  0.000000
  -2.925524  4.249986  0.000000
  0.000000  0.000000  0.000000


  -0.242585  1.072298  0.000000
  1.072298  -2.068552  0.000000
  0.000000  0.000000  0.000000


  1.133645  0.038898  0.000000
  0.038898  -1.227485  0.000000
  0.000000  0.000000  0.000000


  -23.360615  6.324148  0.000000
  6.324148  -1.715291  0.000000
  0.000000  0.000000  0.000000


  -3.233835  0.300457  0.000000
  0.300457  -1.721013  0.000000
  0.000000  0.000000  0.000000


  -12.477183  7.873422  0.000000
  7.873422  -5.858144  0.000000
  0.000000  0.000000  0.000000


  19.463620  -0.926648  0.000000
  -0.926648  0.426748  0.000000
  0.000000  0.000000  0.000000


  1.670953  -3.695361  0.000000
  -3.695361  6.725651  0.000000
  0.000000  0.000000  0.000000


  6.605653  -5.895934  0.000000
  -5.895934  4.609486  0.000000
  0.000000  0.000000  0.000000


  7.460176  -3.646669  0.000000
  -3.646669  -0.082101  0.000000
  0.000000  0.000000  0.000000


  -1.657994  1.290095  0.000000
  1.290095  0.028834  0.000000
  0.000000  0.000000  0.000000


  2.113327  -3.944408  0.000000
  -3.944408  6.302614  0.000000
  0.000000  0.000000  0.000000


  -2.359435  2.014038  0.000000
  2.014038  -2.657836  0.000000
  0.000000  0.000000  0.000000


  1.678878  -3.545508  0.000000
  -3.545508  7.815561  0.000000
  0.000000  0.000000  0.000000


  20.971929  -2.645540  0.000000
  -2.645540  0.489567  0.000000
  0.000000  0.000000  0.000000


  0.012975  -0.119647  0.000000
  -0.119647  2.507593  0.000000
  0.000000  0.000000  0.000000


  6.890408  -7.348283  0.000000
  -7.348283  8.078665  0.000000
  0.000000  0.000000  0.000000


  21.227518  -1.741922  0.000000
  -1.741922  0.375630  0.000000
  0.000000  0.000000  0.000000


  19.545379  -4.870729  0.000000
  -4.870729  1.469513  0.000000
  0.000000  0.000000  0.000000


  15.246452  -7.788286  0.000000
  -7.788286  4.163192  0.000000
  0.000000  0.000000  0.000000


  13.934927  -8.009721  0.000000
  -8.009721  4.738545  0.000000
  0.000000  0.000000  0.000000


  12.166054  -8.262491  0.000000
  -8.262491  5.906062  0.000000
  0.000000  0.000000  0.000000


  9.822187  -7.981882  0.000000
  -7.981882  6.854084  0.000000
  0.000000  0.000000  0.000000


  17.800200  -6.496341  0.000000
  -6.496341  2.558065  0.000000
  0.000000  0.000000  0.000000


  20.329694  -3.953335  0.000000
  -3.953335  0.881707  0.000000
  0.000000  0.000000  0.000000


  2.672359  -4.642046  0.000000
  -4.642046  8.280765  0.000000
  0.000000  0.000000  0.000000


  6.228975  -7.028752  0.000000
  -7.028752  8.016309  0.000000
  0.000000  0.000000  0.000000


  4.898357  -6.272583  0.000000
  -6.272583  8.425004  0.000000
  0.000000  0.000000  0.000000


  0.875758  -2.334857  0.000000
  -2.334857  6.671628  0.000000
  0.000000  0.000000  0.000000


  0.034946  0.065983  0.000000
  0.065983  1.247680  0.000000
  0.000000  0.000000  0.000000


  16.224859  -7.292726  0.000000
  -7.292726  3.466250  0.000000
  0.000000  0.000000  0.000000


  21.657033  -0.772432  0.000000
  -0.772432  0.178977  0.000000
  0.000000  0.000000  0.000000


  0.128777  -0.591716  0.000000
  -0.591716  3.993317  0.000000
  0.000000  0.000000  0.000000


  0.148528  -0.766891  0.000000
  -0.766891  4.423097  0.000000
  0.000000  0.000000  0.000000


  9.253331  -8.069124  0.000000
  -8.069124  7.222818  0.000000
  0.000000  0.000000  0.000000


  19.008357  -5.432054  0.000000
  -5.432054  1.749196  0.000000
  0.000000  0.000000  0.000000


  18.053251  -6.052661  0.000000
  -6.052661  2.224605  0.000000
  0.000000  0.000000  0.000000


  0.386999  -1.399305  0.000000
  -1.399305  5.587501  0.000000
  0.000000  0.000000  0.000000


  1.076592  -3.017322  0.000000
  -3.017322  7.565083  0.000000
  0.000000  0.000000  0.000000


  -13.469468  9.928948  0.000000
  9.928948  -7.543327  0.000000
  0.000000  0.000000  0.000000


  8.719281  -7.260528  0.000000
  -7.260528  4.426898  0.000000
  0.000000  0.000000  0.000000


  7.947001  -6.033139  0.000000
  -6.033139  4.365966  0.000000
  0.000000  0.000000  0.000000


  9.235589  -7.248202  0.000000
  -7.248202  4.001569  0.000000
  0.000000  0.000000  0.000000


  5.936505  -0.789660  0.000000
  -0.789660  -1.219494  0.000000
  0.000000  0.000000  0.000000


  -21.725760  1.817503  0.000000
  1.817503  -0.958261  0.000000
  0.000000  0.000000  0.000000


  -0.324356  -0.838708  0.000000
  -0.838708  4.635617  0.000000
  0.000000  0.000000  0.000000


  -0.240846  1.058006  0.000000
  1.058006  -3.643202  0.000000
  0.000000  0.000000  0.000000


  -22.355906  1.401136  0.000000
  1.401136  -0.062530  0.000000
  0.000000  0.000000  0.000000


  -13.455290  9.848502  0.000000
  9.848502  -8.033621  0.000000
  0.000000  0.000000  0.000000


  -4.614908  6.382823  0.000000
  6.382823  -10.095499  0.000000
  0.000000  0.000000  0.000000


  -20.756383  7.931560  0.000000
  7.931560  -3.955987  0.000000
  0.000000  0.000000  0.000000


  -0.269870  0.810878  0.000000
  0.810878  -3.696773  0.000000
  0.000000  0.000000  0.000000


  -14.223818  9.542249  0.000000
  9.542249  -7.454770  0.000000
  0.000000  0.000000  0.000000


  -12.222494  9.154394  0.000000
  9.154394  -7.598097  0.000000
  0.000000  0.000000  0.000000


  -21.571136  7.937190  0.000000
  7.937190  -3.612367  0.000000
  0.000000  0.000000  0.000000


  -9.630811  8.932044  0.000000
  8.932044  -9.245250  0.000000
  0.000000  0.000000  0.000000


  -10.459843  9.186315  0.000000
  9.186315  -8.986140  0.000000
  0.000000  0.000000  0.000000


  -24.193315  5.429989  0.000000
  5.429989  -2.092727  0.000000
  0.000000  0.000000  0.000000


  -23.746610  6.065720  0.000000
  6.065720  -2.414440  0.000000
  0.000000  0.000000  0.000000


  -22.542062  6.612178  0.000000
  6.612178  -2.915233  0.000000
  0.000000  0.000000  0.000000


  -12.105579  9.571137  0.000000
  9.571137  -8.267729  0.000000
  0.000000  0.000000  0.000000


  -23.231991  6.649112  0.000000
  6.649112  -2.678684  0.000000
  0.000000  0.000000  0.000000


  -22.186531  7.268309  0.000000
  7.268309  -3.224603  0.000000
  0.000000  0.000000  0.000000


  -0.769055  -0.517619  0.000000
  -0.517619  3.860077  0.000000
  0.000000  0.000000  0.000000


  -9.947556  7.699954  0.000000
  7.699954  -7.141352  0.000000
  0.000000  0.000000  0.000000


  -0.600319  1.385655  0.000000
  1.385655  -4.112807  0.000000
  0.000000  0.000000  0.000000


  -1.767455  -0.197779  0.000000
  -0.197779  1.589025  0.000000
  0.000000  0.000000  0.000000


  -23.885861  5.695733  0.000000
  5.695733  -1.338131  0.000000
  0.000000  0.000000  0.000000


  -0.335602  1.060639  0.000000
  1.060639  0.410557  0.000000
  0.000000  0.000000  0.000000


  12.992610  -3.201401  0.000000
  -3.201401  0.297765  0.000000
  0.000000  0.000000  0.000000


  0.275698  -2.119751  0.000000
  -2.119751  3.064164  0.000000
  0.000000  0.000000  0.000000


  -13.292932  0.115543  0.000000
  0.115543  -0.658675  0.000000
  0.000000  0.000000  0.000000


  6.650189  -6.922553  0.000000
  -6.922553  5.096553  0.000000
  0.000000  0.000000  0.000000


  17.739302  -1.478817  0.000000
  -1.478817  -0.117118  0.000000
  0.000000  0.000000  0.000000


  15.815976  -0.310760  0.000000
  -0.310760  -0.113328  0.000000
  0.000000  0.000000  0.000000


  2.825706  -4.361229  0.000000
  -4.361229  6.200159  0.000000
  0.000000  0.000000  0.000000


  -0.422937  0.427489  0.000000
  0.427489  2.618621  0.000000
  0.000000  0.000000  0.000000


  -4.452580  1.930955  0.000000
  1.930955  -2.018559  0.000000
  0.000000  0.000000  0.000000


  -3.111151  2.903705  0.000000
  2.903705  -4.124124  0.000000
  0.000000  0.000000  0.000000


  -8.102987  7.252648  0.000000
  7.252648  -7.830070  0.000000
  0.000000  0.000000  0.000000


  -0.360046  1.396293  0.000000
  1.396293  0.366477  0.000000
  0.000000  0.000000  0.000000


  -21.741326  7.824076  0.000000
  7.824076  -2.954652  0.000000
  0.000000  0.000000  0.000000


  -13.685875  9.932943  0.000000
  9.932943  -7.265590  0.000000
  0.000000  0.000000  0.000000


  -4.678082  5.769784  0.000000
  5.769784  -8.631512  0.000000
  0.000000  0.000000  0.000000


  -1.478964  0.886859  0.000000
  0.886859  0.763077  0.000000
  0.000000  0.000000  0.000000


  -21.701736  3.854754  0.000000
  3.854754  -1.177611  0.000000
  0.000000  0.000000  0.000000


  9.959745  -5.918897  0.000000
  -5.918897  2.786432  0.000000
  0.000000  0.000000  0.000000


  -0.349682  1.396308  0.000000
  1.396308  0.076911  0.000000
  0.000000  0.000000  0.000000


  -2.268277  2.675946  0.000000
  2.675946  -3.872141  0.000000
  0.000000  0.000000  0.000000


  -21.800177  7.613691  0.000000
  7.613691  -2.807766  0.000000
  0.000000  0.000000  0.000000


  -0.423563  0.986022  0.000000
  0.986022  0.081052  0.000000
  0.000000  0.000000  0.000000


  -0.981685  -0.655109  0.000000
  -0.655109  2.991575  0.000000
  0.000000  0.000000  0.000000


  -1.297117  0.065520  0.000000
  0.065520  2.807752  0.000000
  0.000000  0.000000  0.000000


  18.049237  -6.253953  0.000000
  -6.253953  1.341514  0.000000
  0.000000  0.000000  0.000000


  9.689133  -8.345581  0.000000
  -8.345581  6.073895  0.000000
  0.000000  0.000000  0.000000


  -0.269200  0.693405  0.000000
  0.693405  -2.073893  0.000000
  0.000000  0.000000  0.000000


  0.413509  -1.544142  0.000000
  -1.544142  5.775473  0.000000
  0.000000  0.000000  0.000000


  -0.404971  1.370268  0.000000
  1.370268  0.041019  0.000000
  0.000000  0.000000  0.000000


  8.015243  -7.654997  0.000000
  -7.654997  5.626113  0.000000
  0.000000  0.000000  0.000000


  -0.089365  -1.470724  0.000000
  -1.470724  4.996288  0.000000
  0.000000  0.000000  0.000000


  -0.344862  -0.822387  0.000000
  -0.822387  4.578105  0.000000
  0.000000  0.000000  0.000000


  1.239671  -0.527262  0.000000
  -0.527262  -0.046411  0.000000
  0.000000  0.000000  0.000000


  -0.159348  1.467804  0.000000
  1.467804  0.022659  0.000000
  0.000000  0.000000  0.000000


  1.310813  -3.683294  0.000000
  -3.683294  7.787351  0.000000
  0.000000  0.000000  0.000000


  1.665239  -4.239496  0.000000
  -4.239496  7.575752  0.000000
  0.000000  0.000000  0.000000


  -0.443374  1.265005  0.000000
  1.265005  -1.071487  0.000000
  0.000000  0.000000  0.000000


  -20.627078  8.223588  0.000000
  8.223588  -3.301584  0.000000
  0.000000  0.000000  0.000000


  -20.707033  0.095566  0.000000
  0.095566  -0.609367  0.000000
  0.000000  0.000000  0.000000


  -0.275220  1.216669  0.000000
  1.216669  -1.308467  0.000000
  0.000000  0.000000  0.000000


  -10.601122  9.345188  0.000000
  9.345188  -8.434988  0.000000
  0.000000  0.000000  0.000000


  17.021934  -1.563814  0.000000
  -1.563814  -1.067395  0.000000
  0.000000  0.000000  0.000000


  5.695481  -7.281197  0.000000
  -7.281197  8.002083  0.000000
  0.000000  0.000000  0.000000


  -22.428599  6.907190  0.000000
  6.907190  -2.186308  0.000000
  0.000000  0.000000  0.000000


  -9.686171  9.099728  0.000000
  9.099728  -8.833078  0.000000
  0.000000  0.000000  0.000000

