# vtk DataFile Version 2.0
geometrically linear steady-state plane stress analysis
ASCII

DATASET UNSTRUCTURED_GRID
POINTS 201 double
  4.818610  2.570980  0.000000
  4.818610  2.124080  0.000000
  4.369080  2.570980  0.000000
  4.428900  1.900630  0.000000
  4.042230  2.129320  0.000000
  4.818610  1.677180  0.000000
  3.919560  2.570980  0.000000
  4.040200  1.680090  0.000000
  4.428900  1.453740  0.000000
  3.661390  2.038850  0.000000
  4.818610  1.230290  0.000000
  3.470030  2.570980  0.000000
  4.039190  1.230290  0.000000
  4.428900  1.006840  0.000000
  3.650920  1.457030  0.000000
  3.245270  2.181270  0.000000
  4.818610  0.783390  0.000000
  3.020500  2.570980  0.000000
  3.151210  1.763220  0.000000
  4.040200  0.786300  0.000000
  3.649980  1.007410  0.000000
  4.428900  0.559940  0.000000
  3.261790  1.234340  0.000000
  2.795740  2.181270  0.000000
  4.818610  0.336490  0.000000
  2.871930  1.458050  0.000000
  2.570980  2.570980  0.000000
  3.650490  0.562850  0.000000
  2.605530  1.796230  0.000000
  4.039190  0.336490  0.000000
  3.260520  0.784680  0.000000
  4.428900  0.113040  0.000000
  2.872900  1.008180  0.000000
  2.346210  2.181270  0.000000
  4.818610  -0.110410  0.000000
  2.121450  2.570980  0.000000
  3.649480  0.113040  0.000000
  3.262810  0.335030  0.000000
  2.346660  1.402000  0.000000
  4.039190  -0.110410  0.000000
  2.871960  0.557880  0.000000
  2.121450  1.791560  0.000000
  4.428900  -0.333860  0.000000
  2.482910  0.783620  0.000000
  1.896690  2.181270  0.000000
  3.262110  -0.113940  0.000000
  1.899560  1.463010  0.000000
  4.818610  -0.557300  0.000000
  3.650490  -0.336760  0.000000
  2.872750  0.111150  0.000000
  1.671920  2.570980  0.000000
  4.040200  -0.560210  0.000000
  2.482640  0.333820  0.000000
  1.671920  1.791560  0.000000
  1.908950  1.013520  0.000000
  4.428900  -0.780750  0.000000
  1.447160  2.181270  0.000000
  2.872520  -0.338880  0.000000
  1.944270  0.491620  0.000000
  2.484500  -0.115970  0.000000
  4.818610  -1.004200  0.000000
  1.448830  1.316410  0.000000
  1.222400  2.570980  0.000000
  3.151280  -0.643320  0.000000
  4.042230  -1.009440  0.000000
  2.093860  0.107320  0.000000
  3.661450  -0.919050  0.000000
  1.221950  1.791710  0.000000
  1.440440  0.767700  0.000000
  0.997630  2.181270  0.000000
  2.628620  -0.648770  0.000000
  1.754980  0.071900  0.000000
  3.245270  -1.061390  0.000000
  0.999380  1.449140  0.000000
  4.818610  -1.451100  0.000000
  0.772870  2.570980  0.000000
  4.369080  -1.451100  0.000000
  1.896780  -0.282040  0.000000
  1.393130  0.325090  0.000000
  3.919560  -1.451100  0.000000
  1.002500  0.999380  0.000000
  2.795740  -1.061390  0.000000
  2.121450  -0.671680  0.000000
  0.678830  1.758490  0.000000
  3.470030  -1.451100  0.000000
  0.548110  2.181270  0.000000
  1.003160  0.549620  0.000000
  2.346210  -1.061390  0.000000
  3.020500  -1.451100  0.000000
  1.446830  -0.282490  0.000000
  0.611850  1.220850  0.000000
  0.323340  2.570980  0.000000
  1.672370  -0.671830  0.000000
  1.003690  0.099620  0.000000
  0.613730  0.774630  0.000000
  2.570980  -1.451100  0.000000
  1.896690  -1.061390  0.000000
  0.150960  2.040600  0.000000
  0.221900  1.444570  0.000000
  0.611670  0.316440  0.000000
  0.989970  -0.357240  0.000000
  1.222400  -0.671680  0.000000
  2.121450  -1.451100  0.000000
  0.222390  0.996280  0.000000
  -0.126180  2.570980  0.000000
  1.447160  -1.061390  0.000000
  0.225680  0.547280  0.000000
  -0.205890  1.700590  0.000000
  1.671920  -1.451100  0.000000
  0.504520  -0.259800  0.000000
  -0.163070  1.214860  0.000000
  -0.350950  2.181270  0.000000
  0.772430  -0.671830  0.000000
  0.218350  0.098330  0.000000
  0.997630  -1.061390  0.000000
  -0.163060  0.765970  0.000000
  -0.575710  2.570980  0.000000
  1.222400  -1.451100  0.000000
  -0.569100  1.834030  0.000000
  -0.147540  0.311690  0.000000
  -0.554230  1.436770  0.000000
  0.303080  -0.662100  0.000000
  -0.549870  0.987070  0.000000
  0.548110  -1.061390  0.000000
  -0.056750  -0.202620  0.000000
  -0.800470  2.181270  0.000000
  0.772870  -1.451100  0.000000
  -0.555600  0.555210  0.000000
  -0.933980  1.670270  0.000000
  -1.025240  2.570980  0.000000
  -0.931570  1.224480  0.000000
  -0.553840  0.105930  0.000000
  -0.144700  -0.689470  0.000000
  0.098580  -1.061390  0.000000
  0.323340  -1.451100  0.000000
  -0.947110  0.776690  0.000000
  -0.533240  -0.374950  0.000000
  -1.281000  2.045410  0.000000
  -0.942540  0.326900  0.000000
  -1.315960  1.457510  0.000000
  -1.474760  2.570980  0.000000
  -0.350950  -1.061390  0.000000
  -1.323900  1.008070  0.000000
  -0.557720  -0.790820  0.000000
  -0.944540  -0.111480  0.000000
  -0.126180  -1.451100  0.000000
  -1.328330  0.558400  0.000000
  -1.699530  2.181270  0.000000
  -0.908740  -0.600470  0.000000
  -1.705750  1.736560  0.000000
  -1.336060  0.108780  0.000000
  -1.715760  1.235360  0.000000
  -0.800470  -1.061390  0.000000
  -0.575710  -1.451100  0.000000
  -1.924290  2.570980  0.000000
  -1.715000  0.786130  0.000000
  -1.332420  -0.338100  0.000000
  -1.721020  0.341220  0.000000
  -2.116460  2.040240  0.000000
  -2.105770  1.459570  0.000000
  -1.284040  -0.926060  0.000000
  -1.715780  -0.108420  0.000000
  -1.025240  -1.451100  0.000000
  -2.105180  1.010130  0.000000
  -2.373820  2.570980  0.000000
  -2.104240  0.560510  0.000000
  -1.713960  -0.558090  0.000000
  -2.498290  2.130920  0.000000
  -2.107230  0.110890  0.000000
  -2.496490  1.682420  0.000000
  -2.494460  1.233190  0.000000
  -1.699530  -1.061390  0.000000
  -1.474760  -1.451100  0.000000
  -2.103740  -0.333860  0.000000
  -2.493450  0.783390  0.000000
  -2.823340  2.570980  0.000000
  -2.494460  0.339400  0.000000
  -2.883160  1.900630  0.000000
  -2.114750  -0.917140  0.000000
  -2.883160  1.453740  0.000000
  -2.493450  -0.110410  0.000000
  -1.924290  -1.451100  0.000000
  -2.883160  1.006840  0.000000
  -2.493450  -0.557300  0.000000
  -2.883160  0.559940  0.000000
  -2.883160  0.113040  0.000000
  -3.272870  2.570980  0.000000
  -3.272870  2.124080  0.000000
  -3.272870  1.677180  0.000000
  -2.494460  -1.007110  0.000000
  -3.272870  1.230290  0.000000
  -2.883160  -0.333860  0.000000
  -2.373820  -1.451100  0.000000
  -3.272870  0.783390  0.000000
  -3.272870  0.336490  0.000000
  -2.883160  -0.780750  0.000000
  -3.272870  -0.110410  0.000000
  -2.823340  -1.451100  0.000000
  -3.272870  -0.557300  0.000000
  -3.272870  -1.004200  0.000000
  -3.272870  -1.451100  0.000000

CELLS  346  1384
  3  186  187  175
  3  199  200  197
  3  5  1  3
  3  193  194  184
  3  34  24  31
  3  188  190  179
  3  196  198  191
  3  60  47  55
  3  16  10  13
  3  187  188  177
  3  74  60  76
  3  1  0  2
  3  194  196  185
  3  24  16  21
  3  190  193  182
  3  198  199  195
  3  47  34  42
  3  10  5  8
  3  3  1  2
  3  191  198  195
  3  191  195  183
  3  185  196  191
  3  185  191  180
  3  42  34  31
  3  42  31  39
  3  183  195  189
  3  191  183  180
  3  180  183  173
  3  185  180  176
  3  42  39  51
  3  173  183  178
  3  31  24  21
  3  31  21  29
  3  29  21  19
  3  31  29  39
  3  39  29  36
  3  36  29  27
  3  39  36  48
  3  13  10  8
  3  13  8  12
  3  12  8  7
  3  13  12  19
  3  19  12  20
  3  13  19  21
  3  13  21  16
  3  20  12  14
  3  19  20  27
  3  27  20  30
  3  30  20  22
  3  27  30  37
  3  19  27  29
  3  182  193  184
  3  182  184  174
  3  174  184  176
  3  174  176  165
  3  176  184  185
  3  185  184  194
  3  165  176  168
  3  174  165  163
  3  182  174  170
  3  55  47  42
  3  55  42  51
  3  55  51  64
  3  64  51  66
  3  55  64  76
  3  8  5  3
  3  8  3  7
  3  7  3  4
  3  4  3  2
  3  7  4  9
  3  179  190  182
  3  179  182  170
  3  179  170  169
  3  169  170  159
  3  179  169  177
  3  177  169  167
  3  179  177  188
  3  167  169  158
  3  177  167  175
  3  195  199  197
  3  180  173  168
  3  168  173  161
  3  180  168  176
  3  161  173  166
  3  168  161  157
  3  60  55  76
  3  187  177  175
  3  164  175  167
  3  88  84  72
  3  62  75  69
  3  153  145  141
  3  17  26  23
  3  116  129  125
  3  192  181  178
  3  117  108  105
  3  6  11  9
  3  79  76  64
  3  91  104  97
  3  134  126  123
  3  35  50  44
  3  140  154  147
  3  172  162  160
  3  102  95  87
  3  2  6  4
  3  84  79  66
  3  75  91  85
  3  145  134  133
  3  26  35  33
  3  129  140  137
  3  181  172  171
  3  108  102  96
  3  11  17  15
  3  197  192  189
  3  104  116  111
  3  126  117  114
  3  50  62  56
  3  154  164  158
  3  162  153  152
  3  95  88  81
  3  14  12  7
  3  14  7  9
  3  14  9  18
  3  37  30  40
  3  163  165  155
  3  22  20  14
  3  22  14  18
  3  22  18  25
  3  25  18  28
  3  22  25  32
  3  158  169  159
  3  158  159  149
  3  27  37  36
  3  36  37  45
  3  45  37  49
  3  36  45  48
  3  48  45  63
  3  63  45  57
  3  48  63  66
  3  66  63  72
  3  174  163  170
  3  170  163  159
  3  159  163  151
  3  30  22  32
  3  30  32  40
  3  165  168  157
  3  165  157  155
  3  155  157  146
  3  146  157  150
  3  155  146  142
  3  167  158  164
  3  166  173  178
  3  149  159  151
  3  146  150  138
  3  157  161  150
  3  150  161  156
  3  156  161  166
  3  156  166  160
  3  150  156  144
  3  144  156  148
  3  150  144  138
  3  138  144  131
  3  131  144  136
  3  138  131  127
  3  136  144  148
  3  136  148  143
  3  143  148  152
  3  143  152  141
  3  143  141  132
  3  132  141  133
  3  143  132  136
  3  132  133  121
  3  121  133  123
  3  132  121  124
  3  131  136  124
  3  127  131  119
  3  138  127  135
  3  141  152  153
  3  133  141  145
  3  123  133  134
  3  124  121  109
  3  132  124  136
  3  49  37  40
  3  49  40  52
  3  52  40  43
  3  49  52  59
  3  155  142  151
  3  155  151  163
  3  45  49  57
  3  142  146  135
  3  135  146  138
  3  142  135  130
  3  130  135  122
  3  142  130  139
  3  122  135  127
  3  122  127  115
  3  115  127  119
  3  115  119  106
  3  122  115  110
  3  106  119  113
  3  115  106  103
  3  110  115  103
  3  110  103  98
  3  98  103  90
  3  110  98  107
  3  122  110  120
  3  113  119  124
  3  113  124  109
  3  106  113  99
  3  103  106  94
  3  130  122  120
  3  130  120  128
  3  128  120  118
  3  130  128  139
  3  139  128  137
  3  118  120  107
  3  118  107  111
  3  118  111  125
  3  118  125  128
  3  107  120  110
  3  142  139  151
  3  125  111  116
  3  90  103  94
  3  90  94  80
  3  80  94  86
  3  90  80  73
  3  98  90  83
  3  107  98  97
  3  106  99  94
  3  86  94  99
  3  80  86  68
  3  73  80  61
  3  99  113  109
  3  158  149  147
  3  90  73  83
  3  83  67  69
  3  189  195  197
  3  44  50  56
  3  44  56  53
  3  119  131  124
  3  53  56  67
  3  171  172  160
  3  171  160  166
  3  48  66  51
  3  48  51  39
  3  125  129  137
  3  125  137  128
  3  85  91  97
  3  85  97  83
  3  114  117  105
  3  114  105  101
  3  101  105  92
  3  114  101  112
  3  160  162  152
  3  160  152  148
  3  15  17  23
  3  15  23  18
  3  43  40  32
  3  97  104  111
  3  97  111  107
  3  33  35  44
  3  33  44  41
  3  41  44  53
  3  41  53  46
  3  33  41  28
  3  46  53  61
  3  41  46  38
  3  148  156  160
  3  59  52  65
  3  178  183  189
  3  178  189  192
  3  147  154  158
  3  69  75  85
  3  69  85  83
  3  96  102  87
  3  96  87  82
  3  82  87  70
  3  96  82  92
  3  92  82  77
  3  96  92  105
  3  96  105  108
  3  77  82  59
  3  92  77  89
  3  9  4  6
  3  56  62  69
  3  56  69  67
  3  67  83  73
  3  67  73  61
  3  64  66  79
  3  23  26  33
  3  23  33  28
  3  23  28  18
  3  25  28  38
  3  38  28  41
  3  87  95  81
  3  87  81  70
  3  70  81  63
  3  72  84  66
  3  123  126  114
  3  123  114  112
  3  123  112  121
  3  137  140  147
  3  137  147  149
  3  81  88  72
  3  81  72  63
  3  181  171  178
  3  11  15  9
  3  49  59  57
  3  57  59  70
  3  57  70  63
  3  98  83  97
  3  18  9  15
  3  32  25  38
  3  52  43  58
  3  109  121  112
  3  89  77  71
  3  71  77  65
  3  65  77  59
  3  71  65  58
  3  61  80  68
  3  43  32  38
  3  82  70  59
  3  68  86  78
  3  78  86  93
  3  68  78  58
  3  93  86  99
  3  93  99  109
  3  78  93  89
  3  112  101  100
  3  100  101  89
  3  89  101  92
  3  100  89  93
  3  100  93  109
  3  112  100  109
  3  89  71  78
  3  78  71  58
  3  65  52  58
  3  58  43  54
  3  54  43  38
  3  58  54  68
  3  53  67  61
  3  38  46  54
  3  54  46  61
  3  149  151  139
  3  166  178  171
  3  61  68  54
  3  149  139  137

CELL_TYPES 346
5
5
5
5
5
5
5
5
5
5
5
5
5
5
5
5
5
5
5
5
5
5
5
5
5
5
5
5
5
5
5
5
5
5
5
5
5
5
5
5
5
5
5
5
5
5
5
5
5
5
5
5
5
5
5
5
5
5
5
5
5
5
5
5
5
5
5
5
5
5
5
5
5
5
5
5
5
5
5
5
5
5
5
5
5
5
5
5
5
5
5
5
5
5
5
5
5
5
5
5
5
5
5
5
5
5
5
5
5
5
5
5
5
5
5
5
5
5
5
5
5
5
5
5
5
5
5
5
5
5
5
5
5
5
5
5
5
5
5
5
5
5
5
5
5
5
5
5
5
5
5
5
5
5
5
5
5
5
5
5
5
5
5
5
5
5
5
5
5
5
5
5
5
5
5
5
5
5
5
5
5
5
5
5
5
5
5
5
5
5
5
5
5
5
5
5
5
5
5
5
5
5
5
5
5
5
5
5
5
5
5
5
5
5
5
5
5
5
5
5
5
5
5
5
5
5
5
5
5
5
5
5
5
5
5
5
5
5
5
5
5
5
5
5
5
5
5
5
5
5
5
5
5
5
5
5
5
5
5
5
5
5
5
5
5
5
5
5
5
5
5
5
5
5
5
5
5
5
5
5
5
5
5
5
5
5
5
5
5
5
5
5
5
5
5
5
5
5
5
5
5
5
5
5
5
5
5
5
5
5
5
5
5
5
5
5
5
5
5
5
5
5
5
5
5
5
5
5
5
5
5
5
5
5
5
5
5
5
5
5
5
5
5
5
5
5

CELL_DATA 346
TENSORS strain double
  0.000005  -0.000005  0.000000
  -0.000005  -0.000005  0.000000
  0.000000  0.000000  0.000000

  -0.000000  0.000000  0.000000
  0.000000  -0.000000  0.000000
  0.000000  0.000000  0.000000

  0.000056  0.000002  0.000000
  0.000002  0.000000  0.000000
  0.000000  0.000000  0.000000

  0.000001  0.000001  0.000000
  0.000001  -0.000009  0.000000
  0.000000  0.000000  0.000000

  0.000006  0.000004  0.000000
  0.000004  0.000000  0.000000
  0.000000  0.000000  0.000000

  0.000002  0.000000  0.000000
  0.000000  -0.000012  0.000000
  0.000000  0.000000  0.000000

  -0.000000  0.000001  0.000000
  0.000001  -0.000003  0.000000
  0.000000  0.000000  0.000000

  -0.000017  0.000004  0.000000
  0.000004  0.000000  0.000000
  0.000000  0.000000  0.000000

  0.000029  0.000003  0.000000
  0.000003  0.000000  0.000000
  0.000000  0.000000  0.000000

  0.000004  -0.000002  0.000000
  -0.000002  -0.000011  0.000000
  0.000000  0.000000  0.000000

  -0.000035  0.000004  0.000000
  0.000004  0.000000  0.000000
  0.000000  0.000000  0.000000

  0.000086  0.000001  0.000000
  0.000001  0.000000  0.000000
  0.000000  0.000000  0.000000

  0.000000  0.000001  0.000000
  0.000001  -0.000006  0.000000
  0.000000  0.000000  0.000000

  0.000017  0.000003  0.000000
  0.000003  0.000000  0.000000
  0.000000  0.000000  0.000000

  0.000001  0.000001  0.000000
  0.000001  -0.000011  0.000000
  0.000000  0.000000  0.000000

  -0.000001  0.000001  0.000000
  0.000001  -0.000001  0.000000
  0.000000  0.000000  0.000000

  -0.000005  0.000004  0.000000
  0.000004  0.000000  0.000000
  0.000000  0.000000  0.000000

  0.000042  0.000002  0.000000
  0.000002  0.000000  0.000000
  0.000000  0.000000  0.000000

  0.000067  -0.000008  0.000000
  -0.000008  0.000001  0.000000
  0.000000  0.000000  0.000000

  -0.000000  0.000001  0.000000
  0.000001  -0.000002  0.000000
  0.000000  0.000000  0.000000

  -0.000001  0.000002  0.000000
  0.000002  -0.000002  0.000000
  0.000000  0.000000  0.000000

  -0.000000  0.000001  0.000000
  0.000001  -0.000003  0.000000
  0.000000  0.000000  0.000000

  -0.000000  0.000003  0.000000
  0.000003  -0.000003  0.000000
  0.000000  0.000000  0.000000

  0.000000  -0.000001  0.000000
  -0.000001  0.000000  0.000000
  0.000000  0.000000  0.000000

  0.000000  0.000004  0.000000
  0.000004  0.000000  0.000000
  0.000000  0.000000  0.000000

  -0.000001  0.000002  0.000000
  0.000002  -0.000001  0.000000
  0.000000  0.000000  0.000000

  -0.000000  0.000002  0.000000
  0.000002  -0.000002  0.000000
  0.000000  0.000000  0.000000

  -0.000001  0.000003  0.000000
  0.000003  -0.000002  0.000000
  0.000000  0.000000  0.000000

  -0.000000  0.000003  0.000000
  0.000003  -0.000002  0.000000
  0.000000  0.000000  0.000000

  -0.000005  -0.000001  0.000000
  -0.000001  0.000000  0.000000
  0.000000  0.000000  0.000000

  -0.000001  0.000003  0.000000
  0.000003  -0.000001  0.000000
  0.000000  0.000000  0.000000

  0.000011  -0.000001  0.000000
  -0.000001  0.000001  0.000000
  0.000000  0.000000  0.000000

  0.000011  0.000004  0.000000
  0.000004  0.000001  0.000000
  0.000000  0.000000  0.000000

  0.000017  -0.000001  0.000000
  -0.000001  0.000001  0.000000
  0.000000  0.000000  0.000000

  0.000006  -0.000001  0.000000
  -0.000001  0.000001  0.000000
  0.000000  0.000000  0.000000

  0.000005  0.000004  0.000000
  0.000004  0.000001  0.000000
  0.000000  0.000000  0.000000

  0.000011  -0.000001  0.000000
  -0.000001  0.000001  0.000000
  0.000000  0.000000  0.000000

  0.000000  -0.000000  0.000000
  -0.000000  0.000001  0.000000
  0.000000  0.000000  0.000000

  0.000035  -0.000003  0.000000
  -0.000003  0.000001  0.000000
  0.000000  0.000000  0.000000

  0.000034  0.000003  0.000000
  0.000003  0.000001  0.000000
  0.000000  0.000000  0.000000

  0.000041  -0.000004  0.000000
  -0.000004  0.000002  0.000000
  0.000000  0.000000  0.000000

  0.000028  -0.000002  0.000000
  -0.000002  0.000001  0.000000
  0.000000  0.000000  0.000000

  0.000027  0.000003  0.000000
  0.000003  0.000001  0.000000
  0.000000  0.000000  0.000000

  0.000022  0.000003  0.000000
  0.000003  0.000001  0.000000
  0.000000  0.000000  0.000000

  0.000023  -0.000002  0.000000
  -0.000002  0.000001  0.000000
  0.000000  0.000000  0.000000

  0.000034  -0.000002  0.000000
  -0.000002  0.000001  0.000000
  0.000000  0.000000  0.000000

  0.000022  -0.000001  0.000000
  -0.000001  0.000001  0.000000
  0.000000  0.000000  0.000000

  0.000021  0.000004  0.000000
  0.000004  0.000001  0.000000
  0.000000  0.000000  0.000000

  0.000027  -0.000001  0.000000
  -0.000001  0.000001  0.000000
  0.000000  0.000000  0.000000

  0.000016  -0.000000  0.000000
  -0.000000  0.000001  0.000000
  0.000000  0.000000  0.000000

  0.000016  0.000004  0.000000
  0.000004  0.000001  0.000000
  0.000000  0.000000  0.000000

  -0.000001  0.000001  0.000000
  0.000001  -0.000006  0.000000
  0.000000  0.000000  0.000000

  0.000001  0.000002  0.000000
  0.000002  -0.000006  0.000000
  0.000000  0.000000  0.000000

  -0.000000  0.000002  0.000000
  0.000002  -0.000003  0.000000
  0.000000  0.000000  0.000000

  0.000002  0.000002  0.000000
  0.000002  -0.000003  0.000000
  0.000000  0.000000  0.000000

  0.000001  0.000002  0.000000
  0.000002  -0.000005  0.000000
  0.000000  0.000000  0.000000

  -0.000000  0.000001  0.000000
  0.000001  -0.000005  0.000000
  0.000000  0.000000  0.000000

  0.000000  0.000003  0.000000
  0.000003  -0.000001  0.000000
  0.000000  0.000000  0.000000

  0.000001  0.000002  0.000000
  0.000002  -0.000001  0.000000
  0.000000  0.000000  0.000000

  0.000000  0.000001  0.000000
  0.000001  -0.000003  0.000000
  0.000000  0.000000  0.000000

  -0.000011  -0.000001  0.000000
  -0.000001  0.000000  0.000000
  0.000000  0.000000  0.000000

  -0.000011  0.000004  0.000000
  0.000004  0.000000  0.000000
  0.000000  0.000000  0.000000

  -0.000017  -0.000001  0.000000
  -0.000001  0.000000  0.000000
  0.000000  0.000000  0.000000

  -0.000019  0.000004  0.000000
  0.000004  0.000000  0.000000
  0.000000  0.000000  0.000000

  -0.000022  0.000003  0.000000
  0.000003  -0.000001  0.000000
  0.000000  0.000000  0.000000

  0.000049  -0.000004  0.000000
  -0.000004  0.000001  0.000000
  0.000000  0.000000  0.000000

  0.000047  0.000002  0.000000
  0.000002  0.000001  0.000000
  0.000000  0.000000  0.000000

  0.000056  -0.000006  0.000000
  -0.000006  0.000001  0.000000
  0.000000  0.000000  0.000000

  0.000061  -0.000002  0.000000
  -0.000002  0.000003  0.000000
  0.000000  0.000000  0.000000

  0.000056  -0.000000  0.000000
  -0.000000  0.000001  0.000000
  0.000000  0.000000  0.000000

  -0.000001  0.000001  0.000000
  0.000001  -0.000006  0.000000
  0.000000  0.000000  0.000000

  0.000002  0.000000  0.000000
  0.000000  -0.000006  0.000000
  0.000000  0.000000  0.000000

  0.000001  -0.000000  0.000000
  -0.000000  -0.000003  0.000000
  0.000000  0.000000  0.000000

  0.000006  -0.000002  0.000000
  -0.000002  -0.000003  0.000000
  0.000000  0.000000  0.000000

  0.000004  -0.000002  0.000000
  -0.000002  -0.000006  0.000000
  0.000000  0.000000  0.000000

  0.000001  -0.000003  0.000000
  -0.000003  -0.000002  0.000000
  0.000000  0.000000  0.000000

  -0.000001  -0.000000  0.000000
  -0.000000  -0.000006  0.000000
  0.000000  0.000000  0.000000

  0.000010  -0.000005  0.000000
  -0.000005  -0.000002  0.000000
  0.000000  0.000000  0.000000

  0.000007  -0.000008  0.000000
  -0.000008  -0.000002  0.000000
  0.000000  0.000000  0.000000

  -0.000000  0.000000  0.000000
  0.000000  -0.000001  0.000000
  0.000000  0.000000  0.000000

  -0.000001  0.000003  0.000000
  0.000003  -0.000001  0.000000
  0.000000  0.000000  0.000000

  -0.000000  0.000003  0.000000
  0.000003  -0.000001  0.000000
  0.000000  0.000000  0.000000

  0.000000  0.000003  0.000000
  0.000003  -0.000002  0.000000
  0.000000  0.000000  0.000000

  -0.000001  0.000004  0.000000
  0.000004  -0.000000  0.000000
  0.000000  0.000000  0.000000

  0.000000  0.000004  0.000000
  0.000004  -0.000000  0.000000
  0.000000  0.000000  0.000000

  -0.000023  -0.000002  0.000000
  -0.000002  -0.000000  0.000000
  0.000000  0.000000  0.000000

  0.000000  -0.000003  0.000000
  -0.000003  -0.000003  0.000000
  0.000000  0.000000  0.000000

  0.000011  -0.000006  0.000000
  -0.000006  -0.000001  0.000000
  0.000000  0.000000  0.000000

  -0.000031  0.000001  0.000000
  0.000001  0.000001  0.000000
  0.000000  0.000000  0.000000

  0.000042  -0.000008  0.000000
  -0.000008  -0.000001  0.000000
  0.000000  0.000000  0.000000

  -0.000013  0.000001  0.000000
  0.000001  0.000001  0.000000
  0.000000  0.000000  0.000000

  0.000060  -0.000007  0.000000
  -0.000007  -0.000001  0.000000
  0.000000  0.000000  0.000000

  0.000026  -0.000008  0.000000
  -0.000008  -0.000001  0.000000
  0.000000  0.000000  0.000000

  -0.000003  0.000001  0.000000
  0.000001  -0.000000  0.000000
  0.000000  0.000000  0.000000

  -0.000023  0.000001  0.000000
  0.000001  0.000001  0.000000
  0.000000  0.000000  0.000000

  0.000070  -0.000006  0.000000
  -0.000006  -0.000001  0.000000
  0.000000  0.000000  0.000000

  -0.000035  0.000000  0.000000
  0.000000  0.000001  0.000000
  0.000000  0.000000  0.000000

  0.000032  -0.000007  0.000000
  -0.000007  -0.000001  0.000000
  0.000000  0.000000  0.000000

  -0.000018  0.000001  0.000000
  0.000001  0.000001  0.000000
  0.000000  0.000000  0.000000

  0.000051  -0.000008  0.000000
  -0.000008  -0.000001  0.000000
  0.000000  0.000000  0.000000

  0.000019  -0.000008  0.000000
  -0.000008  -0.000001  0.000000
  0.000000  0.000000  0.000000

  -0.000008  0.000001  0.000000
  0.000001  0.000000  0.000000
  0.000000  0.000000  0.000000

  -0.000027  0.000001  0.000000
  0.000001  0.000001  0.000000
  0.000000  0.000000  0.000000

  0.000080  -0.000006  0.000000
  -0.000006  -0.000001  0.000000
  0.000000  0.000000  0.000000

  -0.000031  0.000001  0.000000
  0.000001  0.000001  0.000000
  0.000000  0.000000  0.000000

  0.000037  -0.000008  0.000000
  -0.000008  -0.000001  0.000000
  0.000000  0.000000  0.000000

  -0.000016  0.000001  0.000000
  0.000001  0.000001  0.000000
  0.000000  0.000000  0.000000

  0.000055  -0.000008  0.000000
  -0.000008  -0.000001  0.000000
  0.000000  0.000000  0.000000

  0.000021  -0.000008  0.000000
  -0.000008  -0.000000  0.000000
  0.000000  0.000000  0.000000

  -0.000006  0.000001  0.000000
  0.000001  0.000000  0.000000
  0.000000  0.000000  0.000000

  -0.000025  0.000001  0.000000
  0.000001  0.000001  0.000000
  0.000000  0.000000  0.000000

  0.000066  -0.000007  0.000000
  -0.000007  -0.000001  0.000000
  0.000000  0.000000  0.000000

  -0.000001  0.000001  0.000000
  0.000001  -0.000000  0.000000
  0.000000  0.000000  0.000000

  0.000030  -0.000008  0.000000
  -0.000008  -0.000001  0.000000
  0.000000  0.000000  0.000000

  -0.000020  0.000001  0.000000
  0.000001  0.000001  0.000000
  0.000000  0.000000  0.000000

  0.000046  -0.000008  0.000000
  -0.000008  -0.000001  0.000000
  0.000000  0.000000  0.000000

  0.000015  -0.000008  0.000000
  -0.000008  -0.000001  0.000000
  0.000000  0.000000  0.000000

  -0.000011  0.000001  0.000000
  0.000001  0.000001  0.000000
  0.000000  0.000000  0.000000

  -0.000029  0.000001  0.000000
  0.000001  0.000001  0.000000
  0.000000  0.000000  0.000000

  0.000039  0.000002  0.000000
  0.000002  0.000002  0.000000
  0.000000  0.000000  0.000000

  0.000047  -0.000005  0.000000
  -0.000005  0.000001  0.000000
  0.000000  0.000000  0.000000

  0.000045  0.000001  0.000000
  0.000001  0.000001  0.000000
  0.000000  0.000000  0.000000

  0.000015  0.000004  0.000000
  0.000004  0.000001  0.000000
  0.000000  0.000000  0.000000

  0.000004  0.000002  0.000000
  0.000002  -0.000001  0.000000
  0.000000  0.000000  0.000000

  0.000032  0.000003  0.000000
  0.000003  0.000001  0.000000
  0.000000  0.000000  0.000000

  0.000040  -0.000004  0.000000
  -0.000004  0.000000  0.000000
  0.000000  0.000000  0.000000

  0.000035  0.000001  0.000000
  0.000001  0.000002  0.000000
  0.000000  0.000000  0.000000

  0.000043  -0.000001  0.000000
  -0.000001  -0.000001  0.000000
  0.000000  0.000000  0.000000

  0.000032  -0.000003  0.000000
  -0.000003  0.000000  0.000000
  0.000000  0.000000  0.000000

  0.000004  -0.000003  0.000000
  -0.000003  -0.000000  0.000000
  0.000000  0.000000  0.000000

  0.000010  -0.000004  0.000000
  -0.000004  -0.000001  0.000000
  0.000000  0.000000  0.000000

  0.000010  0.000004  0.000000
  0.000004  0.000001  0.000000
  0.000000  0.000000  0.000000

  0.000005  0.000000  0.000000
  0.000000  0.000001  0.000000
  0.000000  0.000000  0.000000

  0.000005  0.000005  0.000000
  0.000005  0.000001  0.000000
  0.000000  0.000000  0.000000

  -0.000000  0.000005  0.000000
  0.000005  0.000001  0.000000
  0.000000  0.000000  0.000000

  -0.000006  -0.000000  0.000000
  -0.000000  0.000001  0.000000
  0.000000  0.000000  0.000000

  -0.000004  0.000004  0.000000
  0.000004  -0.000001  0.000000
  0.000000  0.000000  0.000000

  -0.000012  0.000005  0.000000
  0.000005  0.000000  0.000000
  0.000000  0.000000  0.000000

  -0.000018  -0.000001  0.000000
  -0.000001  -0.000000  0.000000
  0.000000  0.000000  0.000000

  0.000003  0.000001  0.000000
  0.000001  -0.000003  0.000000
  0.000000  0.000000  0.000000

  0.000002  0.000001  0.000000
  0.000001  -0.000001  0.000000
  0.000000  0.000000  0.000000

  0.000006  -0.000001  0.000000
  -0.000001  -0.000001  0.000000
  0.000000  0.000000  0.000000

  0.000025  0.000003  0.000000
  0.000003  0.000001  0.000000
  0.000000  0.000000  0.000000

  0.000020  -0.000001  0.000000
  -0.000001  0.000001  0.000000
  0.000000  0.000000  0.000000

  0.000002  0.000003  0.000000
  0.000003  -0.000001  0.000000
  0.000000  0.000000  0.000000

  0.000002  0.000003  0.000000
  0.000003  -0.000000  0.000000
  0.000000  0.000000  0.000000

  0.000004  0.000002  0.000000
  0.000002  -0.000000  0.000000
  0.000000  0.000000  0.000000

  0.000002  0.000004  0.000000
  0.000004  -0.000000  0.000000
  0.000000  0.000000  0.000000

  0.000004  0.000002  0.000000
  0.000002  0.000000  0.000000
  0.000000  0.000000  0.000000

  0.000008  -0.000008  0.000000
  -0.000008  0.000000  0.000000
  0.000000  0.000000  0.000000

  -0.000002  0.000003  0.000000
  0.000003  -0.000001  0.000000
  0.000000  0.000000  0.000000

  0.000005  -0.000001  0.000000
  -0.000001  0.000000  0.000000
  0.000000  0.000000  0.000000

  0.000003  0.000002  0.000000
  0.000002  0.000000  0.000000
  0.000000  0.000000  0.000000

  0.000001  0.000003  0.000000
  0.000003  -0.000001  0.000000
  0.000000  0.000000  0.000000

  -0.000001  0.000004  0.000000
  0.000004  -0.000000  0.000000
  0.000000  0.000000  0.000000

  -0.000002  0.000003  0.000000
  0.000003  -0.000000  0.000000
  0.000000  0.000000  0.000000

  -0.000003  0.000004  0.000000
  0.000004  0.000000  0.000000
  0.000000  0.000000  0.000000

  -0.000000  0.000003  0.000000
  0.000003  -0.000000  0.000000
  0.000000  0.000000  0.000000

  -0.000002  0.000004  0.000000
  0.000004  0.000000  0.000000
  0.000000  0.000000  0.000000

  0.000001  0.000004  0.000000
  0.000004  0.000000  0.000000
  0.000000  0.000000  0.000000

  0.000002  0.000003  0.000000
  0.000003  0.000000  0.000000
  0.000000  0.000000  0.000000

  -0.000000  0.000005  0.000000
  0.000005  0.000000  0.000000
  0.000000  0.000000  0.000000

  0.000003  0.000004  0.000000
  0.000004  0.000000  0.000000
  0.000000  0.000000  0.000000

  -0.000002  0.000003  0.000000
  0.000003  0.000000  0.000000
  0.000000  0.000000  0.000000

  -0.000004  0.000004  0.000000
  0.000004  0.000000  0.000000
  0.000000  0.000000  0.000000

  -0.000006  0.000002  0.000000
  0.000002  -0.000000  0.000000
  0.000000  0.000000  0.000000

  -0.000009  0.000003  0.000000
  0.000003  0.000001  0.000000
  0.000000  0.000000  0.000000

  -0.000006  0.000003  0.000000
  0.000003  -0.000001  0.000000
  0.000000  0.000000  0.000000

  -0.000010  0.000003  0.000000
  0.000003  0.000001  0.000000
  0.000000  0.000000  0.000000

  -0.000006  0.000002  0.000000
  0.000002  0.000000  0.000000
  0.000000  0.000000  0.000000

  -0.000006  0.000003  0.000000
  0.000003  -0.000001  0.000000
  0.000000  0.000000  0.000000

  -0.000012  0.000002  0.000000
  0.000002  0.000001  0.000000
  0.000000  0.000000  0.000000

  -0.000006  0.000003  0.000000
  0.000003  0.000001  0.000000
  0.000000  0.000000  0.000000

  -0.000001  0.000002  0.000000
  0.000002  0.000000  0.000000
  0.000000  0.000000  0.000000

  0.000004  0.000002  0.000000
  0.000002  0.000000  0.000000
  0.000000  0.000000  0.000000

  0.000006  0.000002  0.000000
  0.000002  0.000000  0.000000
  0.000000  0.000000  0.000000

  -0.000009  0.000001  0.000000
  0.000001  -0.000001  0.000000
  0.000000  0.000000  0.000000

  -0.000010  0.000001  0.000000
  0.000001  -0.000001  0.000000
  0.000000  0.000000  0.000000

  -0.000012  0.000001  0.000000
  0.000001  -0.000001  0.000000
  0.000000  0.000000  0.000000

  -0.000002  0.000003  0.000000
  0.000003  -0.000001  0.000000
  0.000000  0.000000  0.000000

  -0.000002  0.000005  0.000000
  0.000005  0.000000  0.000000
  0.000000  0.000000  0.000000

  0.000010  0.000000  0.000000
  0.000000  0.000001  0.000000
  0.000000  0.000000  0.000000

  0.000009  0.000005  0.000000
  0.000005  0.000001  0.000000
  0.000000  0.000000  0.000000

  0.000015  0.000000  0.000000
  0.000000  0.000001  0.000000
  0.000000  0.000000  0.000000

  0.000005  0.000001  0.000000
  0.000001  0.000000  0.000000
  0.000000  0.000000  0.000000

  0.000007  0.000000  0.000000
  0.000000  -0.000000  0.000000
  0.000000  0.000000  0.000000

  0.000003  0.000002  0.000000
  0.000002  -0.000000  0.000000
  0.000000  0.000000  0.000000

  0.000000  0.000000  0.000000
  0.000000  0.000000  0.000000
  0.000000  0.000000  0.000000

  0.000007  0.000001  0.000000
  0.000001  0.000000  0.000000
  0.000000  0.000000  0.000000

  0.000004  0.000003  0.000000
  0.000003  0.000000  0.000000
  0.000000  0.000000  0.000000

  0.000007  0.000002  0.000000
  0.000002  0.000000  0.000000
  0.000000  0.000000  0.000000

  0.000010  -0.000000  0.000000
  -0.000000  0.000000  0.000000
  0.000000  0.000000  0.000000

  0.000010  -0.000001  0.000000
  -0.000001  0.000000  0.000000
  0.000000  0.000000  0.000000

  0.000007  0.000003  0.000000
  0.000003  0.000000  0.000000
  0.000000  0.000000  0.000000

  0.000009  0.000001  0.000000
  0.000001  0.000000  0.000000
  0.000000  0.000000  0.000000

  0.000006  0.000004  0.000000
  0.000004  0.000000  0.000000
  0.000000  0.000000  0.000000

  0.000008  0.000001  0.000000
  0.000001  0.000000  0.000000
  0.000000  0.000000  0.000000

  0.000011  0.000002  0.000000
  0.000002  0.000000  0.000000
  0.000000  0.000000  0.000000

  0.000005  0.000004  0.000000
  0.000004  0.000000  0.000000
  0.000000  0.000000  0.000000

  0.000010  0.000003  0.000000
  0.000003  0.000000  0.000000
  0.000000  0.000000  0.000000

  0.000014  -0.000000  0.000000
  -0.000000  0.000000  0.000000
  0.000000  0.000000  0.000000

  0.000015  0.000001  0.000000
  0.000001  0.000000  0.000000
  0.000000  0.000000  0.000000

  0.000019  -0.000002  0.000000
  -0.000002  0.000000  0.000000
  0.000000  0.000000  0.000000

  0.000020  -0.000003  0.000000
  -0.000003  0.000000  0.000000
  0.000000  0.000000  0.000000

  0.000015  -0.000001  0.000000
  -0.000001  0.000000  0.000000
  0.000000  0.000000  0.000000

  0.000003  0.000002  0.000000
  0.000002  -0.000000  0.000000
  0.000000  0.000000  0.000000

  -0.000002  0.000004  0.000000
  0.000004  0.000001  0.000000
  0.000000  0.000000  0.000000

  0.000006  0.000002  0.000000
  0.000002  0.000000  0.000000
  0.000000  0.000000  0.000000

  0.000012  0.000000  0.000000
  0.000000  0.000000  0.000000
  0.000000  0.000000  0.000000

  0.000011  0.000001  0.000000
  0.000001  0.000000  0.000000
  0.000000  0.000000  0.000000

  0.000015  -0.000003  0.000000
  -0.000003  0.000000  0.000000
  0.000000  0.000000  0.000000

  0.000015  -0.000002  0.000000
  -0.000002  0.000000  0.000000
  0.000000  0.000000  0.000000

  0.000011  -0.000001  0.000000
  -0.000001  0.000000  0.000000
  0.000000  0.000000  0.000000

  0.000015  -0.000005  0.000000
  -0.000005  0.000000  0.000000
  0.000000  0.000000  0.000000

  0.000020  -0.000004  0.000000
  -0.000004  0.000000  0.000000
  0.000000  0.000000  0.000000

  0.000019  -0.000004  0.000000
  -0.000004  0.000000  0.000000
  0.000000  0.000000  0.000000

  0.000023  -0.000005  0.000000
  -0.000005  -0.000001  0.000000
  0.000000  0.000000  0.000000

  0.000019  -0.000006  0.000000
  -0.000006  0.000001  0.000000
  0.000000  0.000000  0.000000

  0.000015  -0.000001  0.000000
  -0.000001  0.000001  0.000000
  0.000000  0.000000  0.000000

  0.000007  0.000000  0.000000
  0.000000  0.000000  0.000000
  0.000000  0.000000  0.000000

  0.000023  -0.000009  0.000000
  -0.000009  0.000001  0.000000
  0.000000  0.000000  0.000000

  0.000014  0.000002  0.000000
  0.000002  0.000000  0.000000
  0.000000  0.000000  0.000000

  0.000017  -0.000000  0.000000
  -0.000000  0.000000  0.000000
  0.000000  0.000000  0.000000

  0.000013  0.000003  0.000000
  0.000003  0.000000  0.000000
  0.000000  0.000000  0.000000

  0.000019  0.000001  0.000000
  0.000001  -0.000000  0.000000
  0.000000  0.000000  0.000000

  0.000020  -0.000000  0.000000
  -0.000000  0.000000  0.000000
  0.000000  0.000000  0.000000

  0.000020  -0.000002  0.000000
  -0.000002  0.000000  0.000000
  0.000000  0.000000  0.000000

  0.000008  0.000004  0.000000
  0.000004  0.000000  0.000000
  0.000000  0.000000  0.000000

  0.000010  0.000001  0.000000
  0.000001  0.000000  0.000000
  0.000000  0.000000  0.000000

  0.000015  -0.000000  0.000000
  -0.000000  0.000000  0.000000
  0.000000  0.000000  0.000000

  0.000024  -0.000002  0.000000
  -0.000002  -0.000000  0.000000
  0.000000  0.000000  0.000000

  0.000003  0.000004  0.000000
  0.000004  -0.000000  0.000000
  0.000000  0.000000  0.000000

  0.000010  -0.000004  0.000000
  -0.000004  -0.000000  0.000000
  0.000000  0.000000  0.000000

  0.000024  -0.000003  0.000000
  -0.000003  0.000001  0.000000
  0.000000  0.000000  0.000000

  0.000030  -0.000005  0.000000
  -0.000005  0.000001  0.000000
  0.000000  0.000000  0.000000

  -0.000001  0.000001  0.000000
  0.000001  -0.000000  0.000000
  0.000000  0.000000  0.000000

  0.000041  -0.000008  0.000000
  -0.000008  0.000001  0.000000
  0.000000  0.000000  0.000000

  0.000041  -0.000004  0.000000
  -0.000004  -0.000001  0.000000
  0.000000  0.000000  0.000000

  0.000002  0.000005  0.000000
  0.000005  0.000000  0.000000
  0.000000  0.000000  0.000000

  0.000032  -0.000005  0.000000
  -0.000005  0.000001  0.000000
  0.000000  0.000000  0.000000

  -0.000004  0.000002  0.000000
  0.000002  -0.000000  0.000000
  0.000000  0.000000  0.000000

  -0.000005  0.000002  0.000000
  0.000002  -0.000000  0.000000
  0.000000  0.000000  0.000000

  -0.000011  -0.000001  0.000000
  -0.000001  -0.000000  0.000000
  0.000000  0.000000  0.000000

  -0.000005  0.000004  0.000000
  0.000004  0.000000  0.000000
  0.000000  0.000000  0.000000

  0.000020  -0.000009  0.000000
  -0.000009  0.000000  0.000000
  0.000000  0.000000  0.000000

  0.000017  -0.000004  0.000000
  -0.000004  -0.000000  0.000000
  0.000000  0.000000  0.000000

  0.000031  -0.000009  0.000000
  -0.000009  0.000000  0.000000
  0.000000  0.000000  0.000000

  0.000027  -0.000004  0.000000
  -0.000004  0.000001  0.000000
  0.000000  0.000000  0.000000

  -0.000015  0.000001  0.000000
  0.000001  -0.000001  0.000000
  0.000000  0.000000  0.000000

  -0.000015  0.000002  0.000000
  0.000002  0.000001  0.000000
  0.000000  0.000000  0.000000

  -0.000009  0.000002  0.000000
  0.000002  -0.000001  0.000000
  0.000000  0.000000  0.000000

  -0.000009  0.000002  0.000000
  0.000002  -0.000001  0.000000
  0.000000  0.000000  0.000000

  -0.000007  0.000001  0.000000
  0.000001  -0.000000  0.000000
  0.000000  0.000000  0.000000

  -0.000006  0.000003  0.000000
  0.000003  0.000000  0.000000
  0.000000  0.000000  0.000000

  0.000053  -0.000008  0.000000
  -0.000008  0.000002  0.000000
  0.000000  0.000000  0.000000

  0.000053  -0.000003  0.000000
  -0.000003  -0.000002  0.000000
  0.000000  0.000000  0.000000

  0.000019  0.000004  0.000000
  0.000004  0.000001  0.000000
  0.000000  0.000000  0.000000

  0.000025  -0.000008  0.000000
  -0.000008  0.000001  0.000000
  0.000000  0.000000  0.000000

  0.000027  -0.000005  0.000000
  -0.000005  -0.000001  0.000000
  0.000000  0.000000  0.000000

  0.000045  -0.000008  0.000000
  -0.000008  0.000001  0.000000
  0.000000  0.000000  0.000000

  0.000045  -0.000004  0.000000
  -0.000004  -0.000001  0.000000
  0.000000  0.000000  0.000000

  0.000036  -0.000005  0.000000
  -0.000005  0.000001  0.000000
  0.000000  0.000000  0.000000

  0.000036  -0.000002  0.000000
  -0.000002  -0.000001  0.000000
  0.000000  0.000000  0.000000

  0.000039  -0.000005  0.000000
  -0.000005  0.000002  0.000000
  0.000000  0.000000  0.000000

  0.000028  -0.000003  0.000000
  -0.000003  0.000001  0.000000
  0.000000  0.000000  0.000000

  0.000030  -0.000002  0.000000
  -0.000002  0.000002  0.000000
  0.000000  0.000000  0.000000

  -0.000004  0.000003  0.000000
  0.000003  -0.000000  0.000000
  0.000000  0.000000  0.000000

  0.000004  0.000005  0.000000
  0.000005  0.000000  0.000000
  0.000000  0.000000  0.000000

  -0.000002  0.000002  0.000000
  0.000002  -0.000001  0.000000
  0.000000  0.000000  0.000000

  -0.000002  0.000001  0.000000
  0.000001  -0.000000  0.000000
  0.000000  0.000000  0.000000

  0.000013  -0.000009  0.000000
  -0.000009  0.000000  0.000000
  0.000000  0.000000  0.000000

  0.000034  -0.000008  0.000000
  -0.000008  0.000001  0.000000
  0.000000  0.000000  0.000000

  0.000034  -0.000005  0.000000
  -0.000005  -0.000001  0.000000
  0.000000  0.000000  0.000000

  -0.000018  0.000001  0.000000
  0.000001  -0.000001  0.000000
  0.000000  0.000000  0.000000

  -0.000018  0.000002  0.000000
  0.000002  0.000001  0.000000
  0.000000  0.000000  0.000000

  -0.000010  0.000002  0.000000
  0.000002  -0.000002  0.000000
  0.000000  0.000000  0.000000

  -0.000010  0.000002  0.000000
  0.000002  -0.000001  0.000000
  0.000000  0.000000  0.000000

  -0.000010  0.000003  0.000000
  0.000003  0.000002  0.000000
  0.000000  0.000000  0.000000

  -0.000017  0.000002  0.000000
  0.000002  0.000001  0.000000
  0.000000  0.000000  0.000000

  -0.000017  0.000001  0.000000
  0.000001  -0.000001  0.000000
  0.000000  0.000000  0.000000

  -0.000002  0.000003  0.000000
  0.000003  -0.000001  0.000000
  0.000000  0.000000  0.000000

  -0.000003  0.000003  0.000000
  0.000003  -0.000001  0.000000
  0.000000  0.000000  0.000000

  0.000059  -0.000006  0.000000
  -0.000006  0.000001  0.000000
  0.000000  0.000000  0.000000

  0.000038  -0.000008  0.000000
  -0.000008  0.000001  0.000000
  0.000000  0.000000  0.000000

  0.000038  -0.000005  0.000000
  -0.000005  -0.000001  0.000000
  0.000000  0.000000  0.000000

  0.000029  -0.000001  0.000000
  -0.000001  -0.000001  0.000000
  0.000000  0.000000  0.000000

  0.000024  -0.000002  0.000000
  -0.000002  0.000001  0.000000
  0.000000  0.000000  0.000000

  -0.000021  0.000001  0.000000
  0.000001  -0.000001  0.000000
  0.000000  0.000000  0.000000

  0.000049  -0.000008  0.000000
  -0.000008  0.000001  0.000000
  0.000000  0.000000  0.000000

  0.000049  -0.000004  0.000000
  -0.000004  -0.000001  0.000000
  0.000000  0.000000  0.000000

  0.000043  -0.000005  0.000000
  -0.000005  0.000002  0.000000
  0.000000  0.000000  0.000000

  0.000033  -0.000003  0.000000
  -0.000003  0.000002  0.000000
  0.000000  0.000000  0.000000

  0.000039  -0.000002  0.000000
  -0.000002  -0.000001  0.000000
  0.000000  0.000000  0.000000

  -0.000019  0.000001  0.000000
  0.000001  -0.000001  0.000000
  0.000000  0.000000  0.000000

  -0.000019  0.000003  0.000000
  0.000003  0.000001  0.000000
  0.000000  0.000000  0.000000

  -0.000012  0.000001  0.000000
  0.000001  -0.000001  0.000000
  0.000000  0.000000  0.000000

  -0.000020  0.000002  0.000000
  0.000002  -0.000001  0.000000
  0.000000  0.000000  0.000000

  -0.000014  0.000001  0.000000
  0.000001  -0.000001  0.000000
  0.000000  0.000000  0.000000

  -0.000014  0.000002  0.000000
  0.000002  0.000001  0.000000
  0.000000  0.000000  0.000000

  -0.000007  0.000002  0.000000
  0.000002  -0.000001  0.000000
  0.000000  0.000000  0.000000

  0.000015  -0.000008  0.000000
  -0.000008  0.000001  0.000000
  0.000000  0.000000  0.000000

  0.000016  -0.000006  0.000000
  -0.000006  -0.000000  0.000000
  0.000000  0.000000  0.000000

  -0.000021  0.000001  0.000000
  0.000001  -0.000002  0.000000
  0.000000  0.000000  0.000000

  -0.000021  0.000003  0.000000
  0.000003  0.000002  0.000000
  0.000000  0.000000  0.000000

  -0.000004  0.000001  0.000000
  0.000001  -0.000000  0.000000
  0.000000  0.000000  0.000000

  0.000055  -0.000005  0.000000
  -0.000005  0.000001  0.000000
  0.000000  0.000000  0.000000

  0.000000  0.000005  0.000000
  0.000005  0.000000  0.000000
  0.000000  0.000000  0.000000

  -0.000004  0.000001  0.000000
  0.000001  -0.000000  0.000000
  0.000000  0.000000  0.000000

  -0.000012  0.000002  0.000000
  0.000002  0.000002  0.000000
  0.000000  0.000000  0.000000

  0.000026  -0.000004  0.000000
  -0.000004  -0.000000  0.000000
  0.000000  0.000000  0.000000

  0.000054  -0.000007  0.000000
  -0.000007  0.000000  0.000000
  0.000000  0.000000  0.000000

  0.000032  0.000002  0.000000
  0.000002  0.000000  0.000000
  0.000000  0.000000  0.000000

  0.000012  0.000005  0.000000
  0.000005  0.000001  0.000000
  0.000000  0.000000  0.000000

  -0.000007  0.000003  0.000000
  0.000003  0.000001  0.000000
  0.000000  0.000000  0.000000

  -0.000003  0.000004  0.000000
  0.000004  0.000001  0.000000
  0.000000  0.000000  0.000000

  0.000004  0.000003  0.000000
  0.000003  -0.000001  0.000000
  0.000000  0.000000  0.000000

  -0.000001  0.000001  0.000000
  0.000001  0.000002  0.000000
  0.000000  0.000000  0.000000

  0.000004  0.000003  0.000000
  0.000003  0.000002  0.000000
  0.000000  0.000000  0.000000

  0.000018  0.000003  0.000000
  0.000003  0.000000  0.000000
  0.000000  0.000000  0.000000

  0.000026  -0.000002  0.000000
  -0.000002  -0.000000  0.000000
  0.000000  0.000000  0.000000

  -0.000010  0.000004  0.000000
  0.000004  0.000001  0.000000
  0.000000  0.000000  0.000000

  0.000011  0.000004  0.000000
  0.000004  0.000000  0.000000
  0.000000  0.000000  0.000000

  0.000007  0.000001  0.000000
  0.000001  0.000000  0.000000
  0.000000  0.000000  0.000000

  0.000011  0.000000  0.000000
  0.000000  0.000001  0.000000
  0.000000  0.000000  0.000000

  0.000006  0.000005  0.000000
  0.000005  0.000000  0.000000
  0.000000  0.000000  0.000000

  0.000003  0.000002  0.000000
  0.000002  0.000000  0.000000
  0.000000  0.000000  0.000000

  0.000003  0.000005  0.000000
  0.000005  0.000000  0.000000
  0.000000  0.000000  0.000000

  -0.000009  0.000003  0.000000
  0.000003  0.000001  0.000000
  0.000000  0.000000  0.000000

  -0.000003  0.000004  0.000000
  0.000004  -0.000001  0.000000
  0.000000  0.000000  0.000000

  -0.000009  0.000003  0.000000
  0.000003  0.000001  0.000000
  0.000000  0.000000  0.000000

  -0.000002  0.000002  0.000000
  0.000002  0.000001  0.000000
  0.000000  0.000000  0.000000

  -0.000002  0.000005  0.000000
  0.000005  0.000001  0.000000
  0.000000  0.000000  0.000000

  -0.000003  0.000003  0.000000
  0.000003  -0.000001  0.000000
  0.000000  0.000000  0.000000

  0.000004  0.000001  0.000000
  0.000001  -0.000000  0.000000
  0.000000  0.000000  0.000000

  0.000009  0.000005  0.000000
  0.000005  -0.000001  0.000000
  0.000000  0.000000  0.000000

  0.000010  0.000001  0.000000
  0.000001  -0.000000  0.000000
  0.000000  0.000000  0.000000

  0.000018  -0.000001  0.000000
  -0.000001  -0.000000  0.000000
  0.000000  0.000000  0.000000

  0.000021  0.000002  0.000000
  0.000002  0.000002  0.000000
  0.000000  0.000000  0.000000

  0.000015  0.000004  0.000000
  0.000004  0.000001  0.000000
  0.000000  0.000000  0.000000

  0.000032  -0.000002  0.000000
  -0.000002  -0.000001  0.000000
  0.000000  0.000000  0.000000

  0.000030  -0.000002  0.000000
  -0.000002  -0.000000  0.000000
  0.000000  0.000000  0.000000

  0.000025  0.000002  0.000000
  0.000002  -0.000000  0.000000
  0.000000  0.000000  0.000000

  0.000011  -0.000003  0.000000
  -0.000003  0.000000  0.000000
  0.000000  0.000000  0.000000

  -0.000003  0.000003  0.000000
  0.000003  -0.000000  0.000000
  0.000000  0.000000  0.000000

  0.000021  -0.000001  0.000000
  -0.000001  0.000000  0.000000
  0.000000  0.000000  0.000000

  0.000011  -0.000003  0.000000
  -0.000003  0.000000  0.000000
  0.000000  0.000000  0.000000
POINT_DATA 201
VECTORS displacements double
  0.000000  0.000000  0.000000
  0.000000  0.000000  0.000000
  -0.000039  -0.000001  0.000000
  -0.000022  -0.000001  0.000000
  -0.000050  -0.000007  0.000000
  0.000000  0.000000  0.000000
  -0.000075  -0.000010  0.000000
  -0.000037  -0.000008  0.000000
  -0.000016  -0.000002  0.000000
  -0.000069  -0.000018  0.000000
  0.000000  0.000000  0.000000
  -0.000106  -0.000025  0.000000
  -0.000027  -0.000009  0.000000
  -0.000011  -0.000002  0.000000
  -0.000047  -0.000019  0.000000
  -0.000099  -0.000034  0.000000
  0.000000  0.000000  0.000000
  -0.000136  -0.000045  0.000000
  -0.000081  -0.000038  0.000000
  -0.000018  -0.000009  0.000000
  -0.000033  -0.000020  0.000000
  -0.000007  -0.000003  0.000000
  -0.000053  -0.000034  0.000000
  -0.000123  -0.000056  0.000000
  0.000000  0.000000  0.000000
  -0.000077  -0.000053  0.000000
  -0.000163  -0.000069  0.000000
  -0.000019  -0.000020  0.000000
  -0.000106  -0.000067  0.000000
  -0.000009  -0.000010  0.000000
  -0.000034  -0.000035  0.000000
  -0.000002  -0.000003  0.000000
  -0.000053  -0.000053  0.000000
  -0.000145  -0.000083  0.000000
  0.000000  0.000000  0.000000
  -0.000188  -0.000098  0.000000
  -0.000007  -0.000021  0.000000
  -0.000017  -0.000035  0.000000
  -0.000090  -0.000083  0.000000
  -0.000000  -0.000010  0.000000
  -0.000031  -0.000053  0.000000
  -0.000125  -0.000098  0.000000
  0.000002  -0.000003  0.000000
  -0.000049  -0.000075  0.000000
  -0.000165  -0.000113  0.000000
  -0.000000  -0.000035  0.000000
  -0.000108  -0.000113  0.000000
  0.000000  0.000000  0.000000
  0.000006  -0.000021  0.000000
  -0.000010  -0.000054  0.000000
  -0.000211  -0.000130  0.000000
  0.000008  -0.000010  0.000000
  -0.000024  -0.000075  0.000000
  -0.000141  -0.000130  0.000000
  -0.000076  -0.000113  0.000000
  0.000006  -0.000003  0.000000
  -0.000184  -0.000148  0.000000
  0.000010  -0.000054  0.000000
  -0.000040  -0.000110  0.000000
  -0.000000  -0.000075  0.000000
  0.000000  0.000000  0.000000
  -0.000109  -0.000147  0.000000
  -0.000231  -0.000166  0.000000
  0.000021  -0.000040  0.000000
  0.000018  -0.000010  0.000000
  -0.000014  -0.000100  0.000000
  0.000023  -0.000021  0.000000
  -0.000156  -0.000166  0.000000
  -0.000066  -0.000148  0.000000
  -0.000201  -0.000185  0.000000
  0.000028  -0.000067  0.000000
  -0.000013  -0.000124  0.000000
  0.000036  -0.000037  0.000000
  -0.000131  -0.000185  0.000000
  0.000000  0.000000  0.000000
  -0.000250  -0.000205  0.000000
  0.000016  -0.000003  0.000000
  0.000011  -0.000114  0.000000
  -0.000033  -0.000152  0.000000
  0.000031  -0.000013  0.000000
  -0.000092  -0.000185  0.000000
  0.000046  -0.000058  0.000000
  0.000034  -0.000098  0.000000
  -0.000169  -0.000214  0.000000
  0.000045  -0.000028  0.000000
  -0.000216  -0.000226  0.000000
  -0.000054  -0.000185  0.000000
  0.000054  -0.000084  0.000000
  0.000059  -0.000047  0.000000
  0.000012  -0.000148  0.000000
  -0.000119  -0.000220  0.000000
  -0.000267  -0.000247  0.000000
  0.000039  -0.000131  0.000000
  -0.000018  -0.000185  0.000000
  -0.000078  -0.000220  0.000000
  0.000072  -0.000070  0.000000
  0.000063  -0.000114  0.000000
  -0.000212  -0.000264  0.000000
  -0.000148  -0.000257  0.000000
  -0.000038  -0.000220  0.000000
  0.000019  -0.000186  0.000000
  0.000043  -0.000166  0.000000
  0.000084  -0.000098  0.000000
  -0.000104  -0.000257  0.000000
  -0.000282  -0.000292  0.000000
  0.000070  -0.000148  0.000000
  -0.000061  -0.000257  0.000000
  -0.000184  -0.000300  0.000000
  0.000095  -0.000131  0.000000
  0.000012  -0.000230  0.000000
  -0.000131  -0.000296  0.000000
  -0.000241  -0.000315  0.000000
  0.000047  -0.000206  0.000000
  -0.000020  -0.000258  0.000000
  0.000077  -0.000186  0.000000
  -0.000086  -0.000296  0.000000
  -0.000295  -0.000339  0.000000
  0.000105  -0.000167  0.000000
  -0.000206  -0.000338  0.000000
  -0.000041  -0.000295  0.000000
  -0.000161  -0.000337  0.000000
  0.000049  -0.000250  0.000000
  -0.000112  -0.000337  0.000000
  0.000083  -0.000226  0.000000
  0.000008  -0.000285  0.000000
  -0.000252  -0.000363  0.000000
  0.000115  -0.000206  0.000000
  -0.000068  -0.000337  0.000000
  -0.000193  -0.000378  0.000000
  -0.000307  -0.000388  0.000000
  -0.000142  -0.000378  0.000000
  -0.000022  -0.000337  0.000000
  0.000055  -0.000295  0.000000
  0.000088  -0.000270  0.000000
  0.000123  -0.000248  0.000000
  -0.000093  -0.000380  0.000000
  0.000025  -0.000335  0.000000
  -0.000244  -0.000417  0.000000
  -0.000046  -0.000379  0.000000
  -0.000173  -0.000421  0.000000
  -0.000316  -0.000439  0.000000
  0.000093  -0.000316  0.000000
  -0.000121  -0.000422  0.000000
  0.000067  -0.000338  0.000000
  -0.000001  -0.000380  0.000000
  0.000130  -0.000293  0.000000
  -0.000072  -0.000423  0.000000
  -0.000268  -0.000465  0.000000
  0.000050  -0.000376  0.000000
  -0.000211  -0.000466  0.000000
  -0.000024  -0.000423  0.000000
  -0.000150  -0.000467  0.000000
  0.000097  -0.000364  0.000000
  0.000136  -0.000340  0.000000
  -0.000325  -0.000492  0.000000
  -0.000098  -0.000467  0.000000
  0.000023  -0.000423  0.000000
  -0.000049  -0.000468  0.000000
  -0.000254  -0.000515  0.000000
  -0.000179  -0.000514  0.000000
  0.000086  -0.000418  0.000000
  -0.000001  -0.000467  0.000000
  0.000141  -0.000389  0.000000
  -0.000126  -0.000513  0.000000
  -0.000331  -0.000547  0.000000
  -0.000074  -0.000512  0.000000
  0.000048  -0.000466  0.000000
  -0.000270  -0.000563  0.000000
  -0.000024  -0.000512  0.000000
  -0.000210  -0.000562  0.000000
  -0.000153  -0.000561  0.000000
  0.000102  -0.000465  0.000000
  0.000144  -0.000439  0.000000
  0.000024  -0.000511  0.000000
  -0.000100  -0.000559  0.000000
  -0.000336  -0.000606  0.000000
  -0.000050  -0.000558  0.000000
  -0.000240  -0.000612  0.000000
  0.000088  -0.000512  0.000000
  -0.000181  -0.000610  0.000000
  -0.000000  -0.000557  0.000000
  0.000147  -0.000490  0.000000
  -0.000126  -0.000607  0.000000
  0.000049  -0.000556  0.000000
  -0.000075  -0.000604  0.000000
  -0.000025  -0.000602  0.000000
  -0.000339  -0.000669  0.000000
  -0.000272  -0.000667  0.000000
  -0.000210  -0.000662  0.000000
  0.000098  -0.000556  0.000000
  -0.000153  -0.000657  0.000000
  0.000025  -0.000601  0.000000
  0.000148  -0.000542  0.000000
  -0.000100  -0.000652  0.000000
  -0.000049  -0.000648  0.000000
  0.000074  -0.000600  0.000000
  0.000000  -0.000645  0.000000
  0.000148  -0.000593  0.000000
  0.000049  -0.000644  0.000000
  0.000099  -0.000643  0.000000
  0.000149  -0.000643  0.000000

CELL_DATA 346
TENSORS stress double
  0.547496  -0.455707  0.000000
  -0.455707  -0.453041  0.000000
  0.000000  0.000000  0.000000


  -0.027148  0.026989  0.000000
  0.026989  -0.026831  0.000000
  0.000000  0.000000  0.000000


  5.616015  0.174828  0.000000
  0.174828  0.000000  0.000000
  0.000000  0.000000  0.000000


  0.066231  0.132412  0.000000
  0.132412  -0.864642  0.000000
  0.000000  0.000000  0.000000


  0.581884  0.382397  0.000000
  0.382397  0.000000  0.000000
  0.000000  0.000000  0.000000


  0.175671  0.012719  0.000000
  0.012719  -1.241096  0.000000
  0.000000  0.000000  0.000000


  -0.012271  0.121189  0.000000
  0.121189  -0.306713  0.000000
  0.000000  0.000000  0.000000


  -1.664441  0.416251  0.000000
  0.416251  0.000000  0.000000
  0.000000  0.000000  0.000000


  2.884334  0.300285  0.000000
  0.300285  0.000000  0.000000
  0.000000  0.000000  0.000000


  0.371897  -0.229431  0.000000
  -0.229431  -1.111918  0.000000
  0.000000  0.000000  0.000000


  -3.489209  0.386688  0.000000
  0.386688  0.000000  0.000000
  0.000000  0.000000  0.000000


  8.644322  0.058686  0.000000
  0.058686  0.000000  0.000000
  0.000000  0.000000  0.000000


  0.023528  0.139340  0.000000
  0.139340  -0.578668  0.000000
  0.000000  0.000000  0.000000


  1.707211  0.349778  0.000000
  0.349778  0.000000  0.000000
  0.000000  0.000000  0.000000


  0.115619  0.094696  0.000000
  0.094696  -1.109520  0.000000
  0.000000  0.000000  0.000000


  -0.053635  0.072006  0.000000
  0.072006  -0.098682  0.000000
  0.000000  0.000000  0.000000


  -0.529965  0.399544  0.000000
  0.399544  0.000000  0.000000
  0.000000  0.000000  0.000000


  4.168350  0.234432  0.000000
  0.234432  0.000000  0.000000
  0.000000  0.000000  0.000000


  6.723721  -0.833607  0.000000
  -0.833607  0.148186  0.000000
  0.000000  0.000000  0.000000


  -0.009937  0.084814  0.000000
  0.084814  -0.186926  0.000000
  0.000000  0.000000  0.000000


  -0.070091  0.207046  0.000000
  0.207046  -0.186926  0.000000
  0.000000  0.000000  0.000000


  -0.021457  0.106891  0.000000
  0.106891  -0.328649  0.000000
  0.000000  0.000000  0.000000


  -0.013682  0.252892  0.000000
  0.252892  -0.328649  0.000000
  0.000000  0.000000  0.000000


  0.025960  -0.093812  0.000000
  -0.093812  0.029904  0.000000
  0.000000  0.000000  0.000000


  0.020694  0.405707  0.000000
  0.405707  0.029904  0.000000
  0.000000  0.000000  0.000000


  -0.054002  0.162319  0.000000
  0.162319  -0.079853  0.000000
  0.000000  0.000000  0.000000


  -0.045313  0.234249  0.000000
  0.234249  -0.167409  0.000000
  0.000000  0.000000  0.000000


  -0.094179  0.292345  0.000000
  0.292345  -0.167409  0.000000
  0.000000  0.000000  0.000000


  -0.031511  0.260251  0.000000
  0.260251  -0.248750  0.000000
  0.000000  0.000000  0.000000


  -0.526884  -0.079491  0.000000
  -0.079491  0.003065  0.000000
  0.000000  0.000000  0.000000


  -0.117027  0.282627  0.000000
  0.282627  -0.064006  0.000000
  0.000000  0.000000  0.000000


  1.144548  -0.124572  0.000000
  -0.124572  0.056890  0.000000
  0.000000  0.000000  0.000000


  1.102749  0.390223  0.000000
  0.390223  0.056890  0.000000
  0.000000  0.000000  0.000000


  1.673049  -0.121196  0.000000
  -0.121196  0.106073  0.000000
  0.000000  0.000000  0.000000


  0.565091  -0.077695  0.000000
  -0.077695  0.060153  0.000000
  0.000000  0.000000  0.000000


  0.535476  0.437332  0.000000
  0.437332  0.060153  0.000000
  0.000000  0.000000  0.000000


  1.084627  -0.051306  0.000000
  -0.051306  0.094206  0.000000
  0.000000  0.000000  0.000000


  0.016231  -0.017631  0.000000
  -0.017631  0.052595  0.000000
  0.000000  0.000000  0.000000


  3.526342  -0.292491  0.000000
  -0.292491  0.114852  0.000000
  0.000000  0.000000  0.000000


  3.397347  0.275718  0.000000
  0.275718  0.114852  0.000000
  0.000000  0.000000  0.000000


  4.098308  -0.357199  0.000000
  -0.357199  0.190399  0.000000
  0.000000  0.000000  0.000000


  2.835165  -0.205792  0.000000
  -0.205792  0.145300  0.000000
  0.000000  0.000000  0.000000


  2.710311  0.341095  0.000000
  0.341095  0.147789  0.000000
  0.000000  0.000000  0.000000


  2.225975  0.347787  0.000000
  0.347787  0.086318  0.000000
  0.000000  0.000000  0.000000


  2.295772  -0.188211  0.000000
  -0.188211  0.086318  0.000000
  0.000000  0.000000  0.000000


  3.355552  -0.219185  0.000000
  -0.219185  0.136948  0.000000
  0.000000  0.000000  0.000000


  2.198590  -0.117464  0.000000
  -0.117464  0.123043  0.000000
  0.000000  0.000000  0.000000


  2.071708  0.387767  0.000000
  0.387767  0.124203  0.000000
  0.000000  0.000000  0.000000


  2.687681  -0.145644  0.000000
  -0.145644  0.106272  0.000000
  0.000000  0.000000  0.000000


  1.592807  -0.040496  0.000000
  -0.040496  0.098482  0.000000
  0.000000  0.000000  0.000000


  1.609306  0.401948  0.000000
  0.401948  0.103724  0.000000
  0.000000  0.000000  0.000000


  -0.058036  0.099986  0.000000
  0.099986  -0.599757  0.000000
  0.000000  0.000000  0.000000


  0.142220  0.182425  0.000000
  0.182425  -0.599757  0.000000
  0.000000  0.000000  0.000000


  -0.013467  0.234054  0.000000
  0.234054  -0.306287  0.000000
  0.000000  0.000000  0.000000


  0.165011  0.241033  0.000000
  0.241033  -0.306319  0.000000
  0.000000  0.000000  0.000000


  0.059412  0.249256  0.000000
  0.249256  -0.479092  0.000000
  0.000000  0.000000  0.000000


  -0.038838  0.113502  0.000000
  0.113502  -0.479092  0.000000
  0.000000  0.000000  0.000000


  0.017369  0.324431  0.000000
  0.324431  -0.140838  0.000000
  0.000000  0.000000  0.000000


  0.101048  0.232049  0.000000
  0.232049  -0.142646  0.000000
  0.000000  0.000000  0.000000


  0.012151  0.149011  0.000000
  0.149011  -0.320672  0.000000
  0.000000  0.000000  0.000000


  -1.097190  -0.086762  0.000000
  -0.086762  0.029139  0.000000
  0.000000  0.000000  0.000000


  -1.071507  0.380544  0.000000
  0.380544  0.029139  0.000000
  0.000000  0.000000  0.000000


  -1.662258  -0.140396  0.000000
  -0.140396  0.027929  0.000000
  0.000000  0.000000  0.000000


  -1.936212  0.373575  0.000000
  0.373575  0.032580  0.000000
  0.000000  0.000000  0.000000


  -2.165918  0.332050  0.000000
  0.332050  -0.129824  0.000000
  0.000000  0.000000  0.000000


  4.892166  -0.426587  0.000000
  -0.426587  0.103955  0.000000
  0.000000  0.000000  0.000000


  4.727094  0.157523  0.000000
  0.157523  0.103955  0.000000
  0.000000  0.000000  0.000000


  5.609772  -0.622557  0.000000
  -0.622557  0.111793  0.000000
  0.000000  0.000000  0.000000


  6.101066  -0.159406  0.000000
  -0.159406  0.273471  0.000000
  0.000000  0.000000  0.000000


  5.586410  -0.002007  0.000000
  -0.002007  0.106185  0.000000
  0.000000  0.000000  0.000000


  -0.074154  0.061031  0.000000
  0.061031  -0.649710  0.000000
  0.000000  0.000000  0.000000


  0.249151  0.041320  0.000000
  0.041320  -0.649710  0.000000
  0.000000  0.000000  0.000000


  0.058033  -0.019372  0.000000
  -0.019372  -0.270004  0.000000
  0.000000  0.000000  0.000000


  0.551650  -0.176813  0.000000
  -0.176813  -0.271437  0.000000
  0.000000  0.000000  0.000000


  0.362312  -0.186274  0.000000
  -0.186274  -0.575535  0.000000
  0.000000  0.000000  0.000000


  0.133712  -0.270704  0.000000
  -0.270704  -0.156946  0.000000
  0.000000  0.000000  0.000000


  -0.062624  -0.004291  0.000000
  -0.004291  -0.575535  0.000000
  0.000000  0.000000  0.000000


  0.965024  -0.517510  0.000000
  -0.517510  -0.158940  0.000000
  0.000000  0.000000  0.000000


  0.748205  -0.778657  0.000000
  -0.778657  -0.175429  0.000000
  0.000000  0.000000  0.000000


  -0.007727  0.020659  0.000000
  0.020659  -0.059217  0.000000
  0.000000  0.000000  0.000000


  -0.055816  0.342005  0.000000
  0.342005  -0.110882  0.000000
  0.000000  0.000000  0.000000


  -0.034684  0.327831  0.000000
  0.327831  -0.111106  0.000000
  0.000000  0.000000  0.000000


  0.031866  0.304933  0.000000
  0.304933  -0.248550  0.000000
  0.000000  0.000000  0.000000


  -0.115979  0.376924  0.000000
  0.376924  -0.039320  0.000000
  0.000000  0.000000  0.000000


  0.006296  0.381873  0.000000
  0.381873  -0.048740  0.000000
  0.000000  0.000000  0.000000


  -2.331912  -0.176617  0.000000
  -0.176617  -0.037718  0.000000
  0.000000  0.000000  0.000000


  0.022451  -0.289072  0.000000
  -0.289072  -0.257028  0.000000
  0.000000  0.000000  0.000000


  1.105717  -0.622808  0.000000
  -0.622808  -0.140252  0.000000
  0.000000  0.000000  0.000000


  -3.092855  0.121240  0.000000
  0.121240  0.132435  0.000000
  0.000000  0.000000  0.000000


  4.176925  -0.781317  0.000000
  -0.781317  -0.096330  0.000000
  0.000000  0.000000  0.000000


  -1.339893  0.122779  0.000000
  0.122779  0.069521  0.000000
  0.000000  0.000000  0.000000


  6.025831  -0.745668  0.000000
  -0.745668  -0.133938  0.000000
  0.000000  0.000000  0.000000


  2.571149  -0.795910  0.000000
  -0.795910  -0.069425  0.000000
  0.000000  0.000000  0.000000


  -0.290878  0.132953  0.000000
  0.132953  -0.008518  0.000000
  0.000000  0.000000  0.000000


  -2.268016  0.108238  0.000000
  0.108238  0.116324  0.000000
  0.000000  0.000000  0.000000


  6.981642  -0.618480  0.000000
  -0.618480  -0.118839  0.000000
  0.000000  0.000000  0.000000


  -3.451200  0.010175  0.000000
  0.010175  0.097683  0.000000
  0.000000  0.000000  0.000000


  3.248125  -0.747994  0.000000
  -0.747994  -0.069304  0.000000
  0.000000  0.000000  0.000000


  -1.815522  0.114133  0.000000
  0.114133  0.090918  0.000000
  0.000000  0.000000  0.000000


  5.063830  -0.770852  0.000000
  -0.770852  -0.111943  0.000000
  0.000000  0.000000  0.000000


  1.904721  -0.806824  0.000000
  -0.806824  -0.063979  0.000000
  0.000000  0.000000  0.000000


  -0.776415  0.142701  0.000000
  0.142701  0.034957  0.000000
  0.000000  0.000000  0.000000


  -2.686322  0.097934  0.000000
  0.097934  0.139977  0.000000
  0.000000  0.000000  0.000000


  8.003976  -0.629929  0.000000
  -0.629929  -0.072280  0.000000
  0.000000  0.000000  0.000000


  -3.089775  0.091914  0.000000
  0.091914  0.148985  0.000000
  0.000000  0.000000  0.000000


  3.744792  -0.782592  0.000000
  -0.782592  -0.094386  0.000000
  0.000000  0.000000  0.000000


  -1.583134  0.117367  0.000000
  0.117367  0.082889  0.000000
  0.000000  0.000000  0.000000


  5.534221  -0.760164  0.000000
  -0.760164  -0.127244  0.000000
  0.000000  0.000000  0.000000


  2.139025  -0.806847  0.000000
  -0.806847  -0.047859  0.000000
  0.000000  0.000000  0.000000


  -0.552906  0.146857  0.000000
  0.146857  0.012032  0.000000
  0.000000  0.000000  0.000000


  -2.480664  0.103270  0.000000
  0.103270  0.124432  0.000000
  0.000000  0.000000  0.000000


  6.590068  -0.663846  0.000000
  -0.663846  -0.087892  0.000000
  0.000000  0.000000  0.000000


  -0.094059  0.086205  0.000000
  0.086205  -0.041074  0.000000
  0.000000  0.000000  0.000000


  2.985518  -0.781643  0.000000
  -0.781643  -0.061408  0.000000
  0.000000  0.000000  0.000000


  -2.043731  0.112066  0.000000
  0.112066  0.101403  0.000000
  0.000000  0.000000  0.000000


  4.617658  -0.778913  0.000000
  -0.778913  -0.109846  0.000000
  0.000000  0.000000  0.000000


  1.482959  -0.774754  0.000000
  -0.774754  -0.092334  0.000000
  0.000000  0.000000  0.000000


  -1.080295  0.136602  0.000000
  0.136602  0.062370  0.000000
  0.000000  0.000000  0.000000


  -2.881103  0.097577  0.000000
  0.097577  0.143270  0.000000
  0.000000  0.000000  0.000000


  3.872674  0.238401  0.000000
  0.238401  0.187725  0.000000
  0.000000  0.000000  0.000000


  4.688735  -0.459977  0.000000
  -0.459977  0.139872  0.000000
  0.000000  0.000000  0.000000


  4.472133  0.084993  0.000000
  0.084993  0.120329  0.000000
  0.000000  0.000000  0.000000


  1.468481  0.424642  0.000000
  0.424642  0.103223  0.000000
  0.000000  0.000000  0.000000


  0.368816  0.151158  0.000000
  0.151158  -0.142985  0.000000
  0.000000  0.000000  0.000000


  3.186859  0.289652  0.000000
  0.289652  0.134821  0.000000
  0.000000  0.000000  0.000000


  3.965898  -0.358479  0.000000
  -0.358479  0.021174  0.000000
  0.000000  0.000000  0.000000


  3.468081  0.084420  0.000000
  0.084420  0.228142  0.000000
  0.000000  0.000000  0.000000


  4.302213  -0.105635  0.000000
  -0.105635  -0.122598  0.000000
  0.000000  0.000000  0.000000


  3.150710  -0.252239  0.000000
  -0.252239  0.018605  0.000000
  0.000000  0.000000  0.000000


  0.381354  -0.261404  0.000000
  -0.261404  -0.044572  0.000000
  0.000000  0.000000  0.000000


  0.996334  -0.442929  0.000000
  -0.442929  -0.051464  0.000000
  0.000000  0.000000  0.000000


  1.023399  0.445896  0.000000
  0.445896  0.091973  0.000000
  0.000000  0.000000  0.000000


  0.522457  0.006246  0.000000
  0.006246  0.080232  0.000000
  0.000000  0.000000  0.000000


  0.495248  0.468196  0.000000
  0.468196  0.078791  0.000000
  0.000000  0.000000  0.000000


  -0.019255  0.475943  0.000000
  0.475943  0.054812  0.000000
  0.000000  0.000000  0.000000


  -0.607963  -0.026325  0.000000
  -0.026325  0.092451  0.000000
  0.000000  0.000000  0.000000


  -0.381248  0.425691  0.000000
  0.425691  -0.106753  0.000000
  0.000000  0.000000  0.000000


  -1.172120  0.456236  0.000000
  0.456236  0.016836  0.000000
  0.000000  0.000000  0.000000


  -1.802645  -0.131720  0.000000
  -0.131720  -0.000338  0.000000
  0.000000  0.000000  0.000000


  0.326211  0.091322  0.000000
  0.091322  -0.320933  0.000000
  0.000000  0.000000  0.000000


  0.223610  0.060028  0.000000
  0.060028  -0.117673  0.000000
  0.000000  0.000000  0.000000


  0.627715  -0.073901  0.000000
  -0.073901  -0.118026  0.000000
  0.000000  0.000000  0.000000


  2.473102  0.305595  0.000000
  0.305595  0.103725  0.000000
  0.000000  0.000000  0.000000


  2.041722  -0.067522  0.000000
  -0.067522  0.107050  0.000000
  0.000000  0.000000  0.000000


  0.156482  0.283261  0.000000
  0.283261  -0.140297  0.000000
  0.000000  0.000000  0.000000


  0.155199  0.308224  0.000000
  0.308224  -0.049133  0.000000
  0.000000  0.000000  0.000000


  0.363920  0.201986  0.000000
  0.201986  -0.046297  0.000000
  0.000000  0.000000  0.000000


  0.160429  0.373422  0.000000
  0.373422  -0.000974  0.000000
  0.000000  0.000000  0.000000


  0.394048  0.243854  0.000000
  0.243854  0.009023  0.000000
  0.000000  0.000000  0.000000


  0.803364  -0.838297  0.000000
  -0.838297  0.005838  0.000000
  0.000000  0.000000  0.000000


  -0.211100  0.287110  0.000000
  0.287110  -0.064142  0.000000
  0.000000  0.000000  0.000000


  0.527618  -0.124884  0.000000
  -0.124884  0.007481  0.000000
  0.000000  0.000000  0.000000


  0.298125  0.244995  0.000000
  0.244995  0.003401  0.000000
  0.000000  0.000000  0.000000


  0.093996  0.303435  0.000000
  0.303435  -0.050580  0.000000
  0.000000  0.000000  0.000000


  -0.053801  0.418277  0.000000
  0.418277  -0.000402  0.000000
  0.000000  0.000000  0.000000


  -0.169353  0.310022  0.000000
  0.310022  -0.039861  0.000000
  0.000000  0.000000  0.000000


  -0.256936  0.372779  0.000000
  0.372779  0.005906  0.000000
  0.000000  0.000000  0.000000


  -0.023434  0.308296  0.000000
  0.308296  -0.002195  0.000000
  0.000000  0.000000  0.000000


  -0.182294  0.435017  0.000000
  0.435017  0.029400  0.000000
  0.000000  0.000000  0.000000


  0.096387  0.421709  0.000000
  0.421709  0.022408  0.000000
  0.000000  0.000000  0.000000


  0.184120  0.266860  0.000000
  0.266860  0.023819  0.000000
  0.000000  0.000000  0.000000


  -0.027059  0.452893  0.000000
  0.452893  0.037183  0.000000
  0.000000  0.000000  0.000000


  0.323627  0.392313  0.000000
  0.392313  0.033501  0.000000
  0.000000  0.000000  0.000000


  -0.234617  0.281271  0.000000
  0.281271  0.007168  0.000000
  0.000000  0.000000  0.000000


  -0.395089  0.409543  0.000000
  0.409543  0.024903  0.000000
  0.000000  0.000000  0.000000


  -0.606015  0.202880  0.000000
  0.202880  -0.020022  0.000000
  0.000000  0.000000  0.000000


  -0.873564  0.268627  0.000000
  0.268627  0.077363  0.000000
  0.000000  0.000000  0.000000


  -0.610939  0.273930  0.000000
  0.273930  -0.067907  0.000000
  0.000000  0.000000  0.000000


  -1.026822  0.254973  0.000000
  0.254973  0.081015  0.000000
  0.000000  0.000000  0.000000


  -0.601212  0.240188  0.000000
  0.240188  0.045555  0.000000
  0.000000  0.000000  0.000000


  -0.634010  0.266655  0.000000
  0.266655  -0.071776  0.000000
  0.000000  0.000000  0.000000


  -1.190866  0.247421  0.000000
  0.247421  0.093994  0.000000
  0.000000  0.000000  0.000000


  -0.634050  0.262237  0.000000
  0.262237  0.083563  0.000000
  0.000000  0.000000  0.000000


  -0.083213  0.240880  0.000000
  0.240880  0.019121  0.000000
  0.000000  0.000000  0.000000


  0.437626  0.188832  0.000000
  0.188832  0.031905  0.000000
  0.000000  0.000000  0.000000


  0.593221  0.165994  0.000000
  0.165994  0.026263  0.000000
  0.000000  0.000000  0.000000


  -0.873564  0.095361  0.000000
  0.095361  -0.053965  0.000000
  0.000000  0.000000  0.000000


  -1.026822  0.090801  0.000000
  0.090801  -0.071511  0.000000
  0.000000  0.000000  0.000000


  -1.190866  0.085717  0.000000
  0.085717  -0.084098  0.000000
  0.000000  0.000000  0.000000


  -0.176197  0.343773  0.000000
  0.343773  -0.069526  0.000000
  0.000000  0.000000  0.000000


  -0.232606  0.450426  0.000000
  0.450426  0.002469  0.000000
  0.000000  0.000000  0.000000


  1.011245  0.017698  0.000000
  0.017698  0.082257  0.000000
  0.000000  0.000000  0.000000


  0.910193  0.472977  0.000000
  0.472977  0.083867  0.000000
  0.000000  0.000000  0.000000


  1.453077  0.006224  0.000000
  0.006224  0.066850  0.000000
  0.000000  0.000000  0.000000


  0.501538  0.095719  0.000000
  0.095719  0.016304  0.000000
  0.000000  0.000000  0.000000


  0.663620  0.017845  0.000000
  0.017845  -0.031538  0.000000
  0.000000  0.000000  0.000000


  0.335101  0.153918  0.000000
  0.153918  -0.031076  0.000000
  0.000000  0.000000  0.000000


  0.013643  0.040900  0.000000
  0.040900  0.041577  0.000000
  0.000000  0.000000  0.000000


  0.655507  0.099428  0.000000
  0.099428  0.011843  0.000000
  0.000000  0.000000  0.000000


  0.388119  0.327834  0.000000
  0.327834  0.029573  0.000000
  0.000000  0.000000  0.000000


  0.718620  0.156442  0.000000
  0.156442  0.030164  0.000000
  0.000000  0.000000  0.000000


  1.006438  -0.020282  0.000000
  -0.020282  0.042083  0.000000
  0.000000  0.000000  0.000000


  1.035877  -0.130191  0.000000
  -0.130191  0.026734  0.000000
  0.000000  0.000000  0.000000


  0.703721  0.266780  0.000000
  0.266780  0.037297  0.000000
  0.000000  0.000000  0.000000


  0.936678  0.061258  0.000000
  0.061258  0.042710  0.000000
  0.000000  0.000000  0.000000


  0.625397  0.350304  0.000000
  0.350304  0.045816  0.000000
  0.000000  0.000000  0.000000


  0.819181  0.134751  0.000000
  0.134751  0.030861  0.000000
  0.000000  0.000000  0.000000


  1.076015  0.182216  0.000000
  0.182216  0.039471  0.000000
  0.000000  0.000000  0.000000


  0.477421  0.407426  0.000000
  0.407426  0.024627  0.000000
  0.000000  0.000000  0.000000


  0.989037  0.287007  0.000000
  0.287007  0.035445  0.000000
  0.000000  0.000000  0.000000


  1.374155  -0.036462  0.000000
  -0.036462  0.039461  0.000000
  0.000000  0.000000  0.000000


  1.522467  0.091151  0.000000
  0.091151  0.028323  0.000000
  0.000000  0.000000  0.000000


  1.867040  -0.158656  0.000000
  -0.158656  0.027776  0.000000
  0.000000  0.000000  0.000000


  1.974082  -0.282989  0.000000
  -0.282989  0.013944  0.000000
  0.000000  0.000000  0.000000


  1.462635  -0.145361  0.000000
  -0.145361  0.037187  0.000000
  0.000000  0.000000  0.000000


  0.299626  0.238966  0.000000
  0.238966  -0.030284  0.000000
  0.000000  0.000000  0.000000


  -0.174581  0.362391  0.000000
  0.362391  0.140312  0.000000
  0.000000  0.000000  0.000000


  0.596294  0.157001  0.000000
  0.157001  0.032772  0.000000
  0.000000  0.000000  0.000000


  1.226527  0.040378  0.000000
  0.040378  0.031818  0.000000
  0.000000  0.000000  0.000000


  1.101142  0.055548  0.000000
  0.055548  0.041117  0.000000
  0.000000  0.000000  0.000000


  1.463706  -0.264799  0.000000
  -0.264799  0.034443  0.000000
  0.000000  0.000000  0.000000


  1.543774  -0.203360  0.000000
  -0.203360  0.022507  0.000000
  0.000000  0.000000  0.000000


  1.078860  -0.091833  0.000000
  -0.091833  0.036324  0.000000
  0.000000  0.000000  0.000000


  1.495285  -0.468399  0.000000
  -0.468399  0.046198  0.000000
  0.000000  0.000000  0.000000


  2.003609  -0.374353  0.000000
  -0.374353  0.009062  0.000000
  0.000000  0.000000  0.000000


  1.942775  -0.449927  0.000000
  -0.449927  0.048356  0.000000
  0.000000  0.000000  0.000000


  2.323068  -0.490526  0.000000
  -0.490526  -0.050729  0.000000
  0.000000  0.000000  0.000000


  1.856974  -0.561164  0.000000
  -0.561164  0.062070  0.000000
  0.000000  0.000000  0.000000


  1.531969  -0.079705  0.000000
  -0.079705  0.053221  0.000000
  0.000000  0.000000  0.000000


  0.667441  0.036365  0.000000
  0.036365  0.020964  0.000000
  0.000000  0.000000  0.000000


  2.323068  -0.851997  0.000000
  -0.851997  0.077788  0.000000
  0.000000  0.000000  0.000000


  1.434094  0.219642  0.000000
  0.219642  0.017786  0.000000
  0.000000  0.000000  0.000000


  1.691824  -0.033948  0.000000
  -0.033948  0.015644  0.000000
  0.000000  0.000000  0.000000


  1.266568  0.330987  0.000000
  0.330987  0.025559  0.000000
  0.000000  0.000000  0.000000


  1.894810  0.138622  0.000000
  0.138622  -0.007120  0.000000
  0.000000  0.000000  0.000000


  2.036383  -0.016660  0.000000
  -0.016660  0.008290  0.000000
  0.000000  0.000000  0.000000


  2.032617  -0.228100  0.000000
  -0.228100  0.033948  0.000000
  0.000000  0.000000  0.000000


  0.844864  0.365323  0.000000
  0.365323  0.034457  0.000000
  0.000000  0.000000  0.000000


  1.005147  0.108000  0.000000
  0.108000  0.036767  0.000000
  0.000000  0.000000  0.000000


  1.501486  -0.004323  0.000000
  -0.004323  0.024575  0.000000
  0.000000  0.000000  0.000000


  2.417758  -0.170608  0.000000
  -0.170608  -0.011435  0.000000
  0.000000  0.000000  0.000000


  0.309442  0.438009  0.000000
  0.438009  -0.047893  0.000000
  0.000000  0.000000  0.000000


  1.010136  -0.421487  0.000000
  -0.421487  -0.018710  0.000000
  0.000000  0.000000  0.000000


  2.401601  -0.316393  0.000000
  -0.316393  0.077304  0.000000
  0.000000  0.000000  0.000000


  2.964055  -0.499283  0.000000
  -0.499283  0.114083  0.000000
  0.000000  0.000000  0.000000


  -0.135299  0.103107  0.000000
  0.103107  -0.043486  0.000000
  0.000000  0.000000  0.000000


  4.139017  -0.838314  0.000000
  -0.838314  0.117880  0.000000
  0.000000  0.000000  0.000000


  4.139017  -0.442613  0.000000
  -0.442613  -0.088113  0.000000
  0.000000  0.000000  0.000000


  0.167009  0.451699  0.000000
  0.451699  0.048955  0.000000
  0.000000  0.000000  0.000000


  3.248944  -0.517879  0.000000
  -0.517879  0.121130  0.000000
  0.000000  0.000000  0.000000


  -0.426647  0.155237  0.000000
  0.155237  -0.020302  0.000000
  0.000000  0.000000  0.000000


  -0.481579  0.237018  0.000000
  0.237018  -0.004677  0.000000
  0.000000  0.000000  0.000000


  -1.084710  -0.059135  0.000000
  -0.059135  -0.002596  0.000000
  0.000000  0.000000  0.000000


  -0.507914  0.446147  0.000000
  0.446147  0.005425  0.000000
  0.000000  0.000000  0.000000


  1.989768  -0.865090  0.000000
  -0.865090  0.044173  0.000000
  0.000000  0.000000  0.000000


  1.728424  -0.394358  0.000000
  -0.394358  -0.016318  0.000000
  0.000000  0.000000  0.000000


  3.089173  -0.867831  0.000000
  -0.867831  0.025383  0.000000
  0.000000  0.000000  0.000000


  2.719028  -0.351224  0.000000
  -0.351224  0.058713  0.000000
  0.000000  0.000000  0.000000


  -1.517949  0.084289  0.000000
  0.084289  -0.105543  0.000000
  0.000000  0.000000  0.000000


  -1.517949  0.238720  0.000000
  0.238720  0.111578  0.000000
  0.000000  0.000000  0.000000


  -0.925307  0.221586  0.000000
  0.221586  -0.105312  0.000000
  0.000000  0.000000  0.000000


  -0.852215  0.226110  0.000000
  0.226110  -0.095335  0.000000
  0.000000  0.000000  0.000000


  -0.691728  0.101424  0.000000
  0.101424  -0.026310  0.000000
  0.000000  0.000000  0.000000


  -0.563012  0.341021  0.000000
  0.341021  0.042504  0.000000
  0.000000  0.000000  0.000000


  5.285973  -0.806084  0.000000
  -0.806084  0.181846  0.000000
  0.000000  0.000000  0.000000


  5.285973  -0.266704  0.000000
  -0.266704  -0.152097  0.000000
  0.000000  0.000000  0.000000


  1.896156  0.399132  0.000000
  0.399132  0.105102  0.000000
  0.000000  0.000000  0.000000


  2.542467  -0.782656  0.000000
  -0.782656  0.087143  0.000000
  0.000000  0.000000  0.000000


  2.697153  -0.528396  0.000000
  -0.528396  -0.067707  0.000000
  0.000000  0.000000  0.000000


  4.533528  -0.826698  0.000000
  -0.826698  0.128865  0.000000
  0.000000  0.000000  0.000000


  4.533528  -0.432233  0.000000
  -0.432233  -0.116709  0.000000
  0.000000  0.000000  0.000000


  3.610849  -0.481902  0.000000
  -0.481902  0.132905  0.000000
  0.000000  0.000000  0.000000


  3.610849  -0.191685  0.000000
  -0.191685  -0.090321  0.000000
  0.000000  0.000000  0.000000


  3.901695  -0.497383  0.000000
  -0.497383  0.168604  0.000000
  0.000000  0.000000  0.000000


  2.840050  -0.311147  0.000000
  -0.311147  0.114165  0.000000
  0.000000  0.000000  0.000000


  2.991816  -0.175312  0.000000
  -0.175312  0.169912  0.000000
  0.000000  0.000000  0.000000


  -0.382599  0.260559  0.000000
  0.260559  -0.011711  0.000000
  0.000000  0.000000  0.000000


  0.440275  0.545017  0.000000
  0.545017  0.020021  0.000000
  0.000000  0.000000  0.000000


  -0.222262  0.219602  0.000000
  0.219602  -0.080109  0.000000
  0.000000  0.000000  0.000000


  -0.176545  0.115875  0.000000
  0.115875  -0.018860  0.000000
  0.000000  0.000000  0.000000


  1.330018  -0.900687  0.000000
  -0.900687  0.018913  0.000000
  0.000000  0.000000  0.000000


  3.381945  -0.843419  0.000000
  -0.843419  0.096468  0.000000
  0.000000  0.000000  0.000000


  3.381945  -0.512126  0.000000
  -0.512126  -0.104160  0.000000
  0.000000  0.000000  0.000000


  -1.811720  0.077688  0.000000
  0.077688  -0.127584  0.000000
  0.000000  0.000000  0.000000


  -1.811720  0.211892  0.000000
  0.211892  0.133734  0.000000
  0.000000  0.000000  0.000000


  -0.989221  0.191349  0.000000
  0.191349  -0.163546  0.000000
  0.000000  0.000000  0.000000


  -1.035403  0.201829  0.000000
  0.201829  -0.112881  0.000000
  0.000000  0.000000  0.000000


  -1.035478  0.315174  0.000000
  0.315174  0.154441  0.000000
  0.000000  0.000000  0.000000


  -1.672139  0.231677  0.000000
  0.231677  0.132623  0.000000
  0.000000  0.000000  0.000000


  -1.672139  0.078598  0.000000
  0.078598  -0.116068  0.000000
  0.000000  0.000000  0.000000


  -0.175457  0.306204  0.000000
  0.306204  -0.141842  0.000000
  0.000000  0.000000  0.000000


  -0.276936  0.313416  0.000000
  0.313416  -0.094956  0.000000
  0.000000  0.000000  0.000000


  5.864783  -0.589023  0.000000
  -0.589023  0.115468  0.000000
  0.000000  0.000000  0.000000


  3.767039  -0.837796  0.000000
  -0.837796  0.105170  0.000000
  0.000000  0.000000  0.000000


  3.767039  -0.465207  0.000000
  -0.465207  -0.112927  0.000000
  0.000000  0.000000  0.000000


  2.920582  -0.137104  0.000000
  -0.137104  -0.108376  0.000000
  0.000000  0.000000  0.000000


  2.417890  -0.150748  0.000000
  -0.150748  0.121549  0.000000
  0.000000  0.000000  0.000000


  -2.051820  0.117880  0.000000
  0.117880  -0.070100  0.000000
  0.000000  0.000000  0.000000


  4.931936  -0.820888  0.000000
  -0.820888  0.143155  0.000000
  0.000000  0.000000  0.000000


  4.931936  -0.359549  0.000000
  -0.359549  -0.113040  0.000000
  0.000000  0.000000  0.000000


  4.253046  -0.502448  0.000000
  -0.502448  0.193819  0.000000
  0.000000  0.000000  0.000000


  3.274475  -0.275793  0.000000
  -0.275793  0.247076  0.000000
  0.000000  0.000000  0.000000


  3.895670  -0.183640  0.000000
  -0.183640  -0.141799  0.000000
  0.000000  0.000000  0.000000


  -1.933753  0.071108  0.000000
  0.071108  -0.141311  0.000000
  0.000000  0.000000  0.000000


  -1.933753  0.296496  0.000000
  0.296496  0.134986  0.000000
  0.000000  0.000000  0.000000


  -1.203765  0.128257  0.000000
  0.128257  -0.121043  0.000000
  0.000000  0.000000  0.000000


  -2.041869  0.233033  0.000000
  0.233033  -0.088199  0.000000
  0.000000  0.000000  0.000000


  -1.360390  0.084740  0.000000
  0.084740  -0.094373  0.000000
  0.000000  0.000000  0.000000


  -1.360390  0.248980  0.000000
  0.248980  0.100933  0.000000
  0.000000  0.000000  0.000000


  -0.745110  0.235897  0.000000
  0.235897  -0.088014  0.000000
  0.000000  0.000000  0.000000


  1.472431  -0.787221  0.000000
  -0.787221  0.057212  0.000000
  0.000000  0.000000  0.000000


  1.588255  -0.620255  0.000000
  -0.620255  -0.013263  0.000000
  0.000000  0.000000  0.000000


  -2.055453  0.074168  0.000000
  0.074168  -0.158363  0.000000
  0.000000  0.000000  0.000000


  -2.055453  0.298260  0.000000
  0.298260  0.205775  0.000000
  0.000000  0.000000  0.000000


  -0.385183  0.116240  0.000000
  0.116240  -0.008442  0.000000
  0.000000  0.000000  0.000000


  5.474933  -0.535876  0.000000
  -0.535876  0.135420  0.000000
  0.000000  0.000000  0.000000


  0.044056  0.479479  0.000000
  0.479479  0.041128  0.000000
  0.000000  0.000000  0.000000


  -0.373429  0.092618  0.000000
  0.092618  -0.040696  0.000000
  0.000000  0.000000  0.000000


  -1.206125  0.239514  0.000000
  0.239514  0.243888  0.000000
  0.000000  0.000000  0.000000


  2.642354  -0.445726  0.000000
  -0.445726  -0.026494  0.000000
  0.000000  0.000000  0.000000


  5.360832  -0.717686  0.000000
  -0.717686  0.047052  0.000000
  0.000000  0.000000  0.000000


  3.165644  0.246238  0.000000
  0.246238  0.020754  0.000000
  0.000000  0.000000  0.000000


  1.219585  0.465199  0.000000
  0.465199  0.066299  0.000000
  0.000000  0.000000  0.000000


  -0.743359  0.280451  0.000000
  0.280451  0.136087  0.000000
  0.000000  0.000000  0.000000


  -0.277048  0.369268  0.000000
  0.369268  0.090302  0.000000
  0.000000  0.000000  0.000000


  0.418925  0.266788  0.000000
  0.266788  -0.103520  0.000000
  0.000000  0.000000  0.000000


  -0.095983  0.120617  0.000000
  0.120617  0.176373  0.000000
  0.000000  0.000000  0.000000


  0.418367  0.254477  0.000000
  0.254477  0.183087  0.000000
  0.000000  0.000000  0.000000


  1.779128  0.261529  0.000000
  0.261529  0.037585  0.000000
  0.000000  0.000000  0.000000


  2.583981  -0.160168  0.000000
  -0.160168  -0.026773  0.000000
  0.000000  0.000000  0.000000


  -1.004684  0.355480  0.000000
  0.355480  0.147697  0.000000
  0.000000  0.000000  0.000000


  1.080860  0.420547  0.000000
  0.420547  0.011888  0.000000
  0.000000  0.000000  0.000000


  0.724007  0.110002  0.000000
  0.110002  0.009634  0.000000
  0.000000  0.000000  0.000000


  1.095778  0.046336  0.000000
  0.046336  0.091715  0.000000
  0.000000  0.000000  0.000000


  0.602346  0.453974  0.000000
  0.453974  0.010445  0.000000
  0.000000  0.000000  0.000000


  0.287216  0.179732  0.000000
  0.179732  0.048928  0.000000
  0.000000  0.000000  0.000000


  0.316838  0.455252  0.000000
  0.455252  0.031701  0.000000
  0.000000  0.000000  0.000000


  -0.852267  0.304850  0.000000
  0.304850  0.104336  0.000000
  0.000000  0.000000  0.000000


  -0.290600  0.364857  0.000000
  0.364857  -0.113846  0.000000
  0.000000  0.000000  0.000000


  -0.925236  0.328090  0.000000
  0.328090  0.139597  0.000000
  0.000000  0.000000  0.000000


  -0.229426  0.161619  0.000000
  0.161619  0.085334  0.000000
  0.000000  0.000000  0.000000


  -0.172135  0.492782  0.000000
  0.492782  0.065391  0.000000
  0.000000  0.000000  0.000000


  -0.262005  0.251851  0.000000
  0.251851  -0.104615  0.000000
  0.000000  0.000000  0.000000


  0.397626  0.141861  0.000000
  0.141861  -0.024327  0.000000
  0.000000  0.000000  0.000000


  0.865760  0.454112  0.000000
  0.454112  -0.087977  0.000000
  0.000000  0.000000  0.000000


  1.002997  0.079951  0.000000
  0.079951  -0.041365  0.000000
  0.000000  0.000000  0.000000


  1.848647  -0.096964  0.000000
  -0.096964  -0.000251  0.000000
  0.000000  0.000000  0.000000


  2.097888  0.249750  0.000000
  0.249750  0.177463  0.000000
  0.000000  0.000000  0.000000


  1.504470  0.413418  0.000000
  0.413418  0.070407  0.000000
  0.000000  0.000000  0.000000


  3.249168  -0.181788  0.000000
  -0.181788  -0.097495  0.000000
  0.000000  0.000000  0.000000


  2.998769  -0.163771  0.000000
  -0.163771  -0.034364  0.000000
  0.000000  0.000000  0.000000


  2.517069  0.206966  0.000000
  0.206966  -0.018664  0.000000
  0.000000  0.000000  0.000000


  1.055133  -0.310755  0.000000
  -0.310755  0.014695  0.000000
  0.000000  0.000000  0.000000


  -0.265537  0.289586  0.000000
  0.289586  -0.001841  0.000000
  0.000000  0.000000  0.000000


  2.064412  -0.114571  0.000000
  -0.114571  0.049020  0.000000
  0.000000  0.000000  0.000000


  1.083051  -0.287173  0.000000
  -0.287173  0.026102  0.000000
  0.000000  0.000000  0.000000

