# vtk DataFile Version 2.0
geometrically linear steady-state plane stress analysis
ASCII

DATASET UNSTRUCTURED_GRID
POINTS 201 double
  4.818610  2.570980  0.000000
  4.818610  2.124080  0.000000
  4.369080  2.570980  0.000000
  4.428900  1.900630  0.000000
  4.042230  2.129320  0.000000
  4.818610  1.677180  0.000000
  3.919560  2.570980  0.000000
  4.040200  1.680090  0.000000
  4.428900  1.453740  0.000000
  3.661390  2.038850  0.000000
  4.818610  1.230290  0.000000
  3.470030  2.570980  0.000000
  4.039190  1.230290  0.000000
  4.428900  1.006840  0.000000
  3.650920  1.457030  0.000000
  3.245270  2.181270  0.000000
  4.818610  0.783390  0.000000
  3.020500  2.570980  0.000000
  3.151210  1.763220  0.000000
  4.040200  0.786300  0.000000
  3.649980  1.007410  0.000000
  4.428900  0.559940  0.000000
  3.261790  1.234340  0.000000
  2.795740  2.181270  0.000000
  4.818610  0.336490  0.000000
  2.871930  1.458050  0.000000
  2.570980  2.570980  0.000000
  3.650490  0.562850  0.000000
  2.605530  1.796230  0.000000
  4.039190  0.336490  0.000000
  3.260520  0.784680  0.000000
  4.428900  0.113040  0.000000
  2.872900  1.008180  0.000000
  2.346210  2.181270  0.000000
  4.818610  -0.110410  0.000000
  2.121450  2.570980  0.000000
  3.649480  0.113040  0.000000
  3.262810  0.335030  0.000000
  2.346660  1.402000  0.000000
  4.039190  -0.110410  0.000000
  2.871960  0.557880  0.000000
  2.121450  1.791560  0.000000
  4.428900  -0.333860  0.000000
  2.482910  0.783620  0.000000
  1.896690  2.181270  0.000000
  3.262110  -0.113940  0.000000
  1.899560  1.463010  0.000000
  4.818610  -0.557300  0.000000
  3.650490  -0.336760  0.000000
  2.872750  0.111150  0.000000
  1.671920  2.570980  0.000000
  4.040200  -0.560210  0.000000
  2.482640  0.333820  0.000000
  1.671920  1.791560  0.000000
  1.908950  1.013520  0.000000
  4.428900  -0.780750  0.000000
  1.447160  2.181270  0.000000
  2.872520  -0.338880  0.000000
  1.944270  0.491620  0.000000
  2.484500  -0.115970  0.000000
  4.818610  -1.004200  0.000000
  1.448830  1.316410  0.000000
  1.222400  2.570980  0.000000
  3.151280  -0.643320  0.000000
  4.042230  -1.009440  0.000000
  2.093860  0.107320  0.000000
  3.661450  -0.919050  0.000000
  1.221950  1.791710  0.000000
  1.440440  0.767700  0.000000
  0.997630  2.181270  0.000000
  2.628620  -0.648770  0.000000
  1.754980  0.071900  0.000000
  3.245270  -1.061390  0.000000
  0.999380  1.449140  0.000000
  4.818610  -1.451100  0.000000
  0.772870  2.570980  0.000000
  4.369080  -1.451100  0.000000
  1.896780  -0.282040  0.000000
  1.393130  0.325090  0.000000
  3.919560  -1.451100  0.000000
  1.002500  0.999380  0.000000
  2.795740  -1.061390  0.000000
  2.121450  -0.671680  0.000000
  0.678830  1.758490  0.000000
  3.470030  -1.451100  0.000000
  0.548110  2.181270  0.000000
  1.003160  0.549620  0.000000
  2.346210  -1.061390  0.000000
  3.020500  -1.451100  0.000000
  1.446830  -0.282490  0.000000
  0.611850  1.220850  0.000000
  0.323340  2.570980  0.000000
  1.672370  -0.671830  0.000000
  1.003690  0.099620  0.000000
  0.613730  0.774630  0.000000
  2.570980  -1.451100  0.000000
  1.896690  -1.061390  0.000000
  0.150960  2.040600  0.000000
  0.221900  1.444570  0.000000
  0.611670  0.316440  0.000000
  0.989970  -0.357240  0.000000
  1.222400  -0.671680  0.000000
  2.121450  -1.451100  0.000000
  0.222390  0.996280  0.000000
  -0.126180  2.570980  0.000000
  1.447160  -1.061390  0.000000
  0.225680  0.547280  0.000000
  -0.205890  1.700590  0.000000
  1.671920  -1.451100  0.000000
  0.504520  -0.259800  0.000000
  -0.163070  1.214860  0.000000
  -0.350950  2.181270  0.000000
  0.772430  -0.671830  0.000000
  0.218350  0.098330  0.000000
  0.997630  -1.061390  0.000000
  -0.163060  0.765970  0.000000
  -0.575710  2.570980  0.000000
  1.222400  -1.451100  0.000000
  -0.569100  1.834030  0.000000
  -0.147540  0.311690  0.000000
  -0.554230  1.436770  0.000000
  0.303080  -0.662100  0.000000
  -0.549870  0.987070  0.000000
  0.548110  -1.061390  0.000000
  -0.056750  -0.202620  0.000000
  -0.800470  2.181270  0.000000
  0.772870  -1.451100  0.000000
  -0.555600  0.555210  0.000000
  -0.933980  1.670270  0.000000
  -1.025240  2.570980  0.000000
  -0.931570  1.224480  0.000000
  -0.553840  0.105930  0.000000
  -0.144700  -0.689470  0.000000
  0.098580  -1.061390  0.000000
  0.323340  -1.451100  0.000000
  -0.947110  0.776690  0.000000
  -0.533240  -0.374950  0.000000
  -1.281000  2.045410  0.000000
  -0.942540  0.326900  0.000000
  -1.315960  1.457510  0.000000
  -1.474760  2.570980  0.000000
  -0.350950  -1.061390  0.000000
  -1.323900  1.008070  0.000000
  -0.557720  -0.790820  0.000000
  -0.944540  -0.111480  0.000000
  -0.126180  -1.451100  0.000000
  -1.328330  0.558400  0.000000
  -1.699530  2.181270  0.000000
  -0.908740  -0.600470  0.000000
  -1.705750  1.736560  0.000000
  -1.336060  0.108780  0.000000
  -1.715760  1.235360  0.000000
  -0.800470  -1.061390  0.000000
  -0.575710  -1.451100  0.000000
  -1.924290  2.570980  0.000000
  -1.715000  0.786130  0.000000
  -1.332420  -0.338100  0.000000
  -1.721020  0.341220  0.000000
  -2.116460  2.040240  0.000000
  -2.105770  1.459570  0.000000
  -1.284040  -0.926060  0.000000
  -1.715780  -0.108420  0.000000
  -1.025240  -1.451100  0.000000
  -2.105180  1.010130  0.000000
  -2.373820  2.570980  0.000000
  -2.104240  0.560510  0.000000
  -1.713960  -0.558090  0.000000
  -2.498290  2.130920  0.000000
  -2.107230  0.110890  0.000000
  -2.496490  1.682420  0.000000
  -2.494460  1.233190  0.000000
  -1.699530  -1.061390  0.000000
  -1.474760  -1.451100  0.000000
  -2.103740  -0.333860  0.000000
  -2.493450  0.783390  0.000000
  -2.823340  2.570980  0.000000
  -2.494460  0.339400  0.000000
  -2.883160  1.900630  0.000000
  -2.114750  -0.917140  0.000000
  -2.883160  1.453740  0.000000
  -2.493450  -0.110410  0.000000
  -1.924290  -1.451100  0.000000
  -2.883160  1.006840  0.000000
  -2.493450  -0.557300  0.000000
  -2.883160  0.559940  0.000000
  -2.883160  0.113040  0.000000
  -3.272870  2.570980  0.000000
  -3.272870  2.124080  0.000000
  -3.272870  1.677180  0.000000
  -2.494460  -1.007110  0.000000
  -3.272870  1.230290  0.000000
  -2.883160  -0.333860  0.000000
  -2.373820  -1.451100  0.000000
  -3.272870  0.783390  0.000000
  -3.272870  0.336490  0.000000
  -2.883160  -0.780750  0.000000
  -3.272870  -0.110410  0.000000
  -2.823340  -1.451100  0.000000
  -3.272870  -0.557300  0.000000
  -3.272870  -1.004200  0.000000
  -3.272870  -1.451100  0.000000

CELLS  346  1384
  3  186  187  175
  3  199  200  197
  3  5  1  3
  3  193  194  184
  3  34  24  31
  3  188  190  179
  3  196  198  191
  3  60  47  55
  3  16  10  13
  3  187  188  177
  3  74  60  76
  3  1  0  2
  3  194  196  185
  3  24  16  21
  3  190  193  182
  3  198  199  195
  3  47  34  42
  3  10  5  8
  3  3  1  2
  3  191  198  195
  3  191  195  183
  3  185  196  191
  3  185  191  180
  3  42  34  31
  3  42  31  39
  3  183  195  189
  3  191  183  180
  3  180  183  173
  3  185  180  176
  3  42  39  51
  3  173  183  178
  3  31  24  21
  3  31  21  29
  3  29  21  19
  3  31  29  39
  3  39  29  36
  3  36  29  27
  3  39  36  48
  3  13  10  8
  3  13  8  12
  3  12  8  7
  3  13  12  19
  3  19  12  20
  3  13  19  21
  3  13  21  16
  3  20  12  14
  3  19  20  27
  3  27  20  30
  3  30  20  22
  3  27  30  37
  3  19  27  29
  3  182  193  184
  3  182  184  174
  3  174  184  176
  3  174  176  165
  3  176  184  185
  3  185  184  194
  3  165  176  168
  3  174  165  163
  3  182  174  170
  3  55  47  42
  3  55  42  51
  3  55  51  64
  3  64  51  66
  3  55  64  76
  3  8  5  3
  3  8  3  7
  3  7  3  4
  3  4  3  2
  3  7  4  9
  3  179  190  182
  3  179  182  170
  3  179  170  169
  3  169  170  159
  3  179  169  177
  3  177  169  167
  3  179  177  188
  3  167  169  158
  3  177  167  175
  3  195  199  197
  3  180  173  168
  3  168  173  161
  3  180  168  176
  3  161  173  166
  3  168  161  157
  3  60  55  76
  3  187  177  175
  3  164  175  167
  3  88  84  72
  3  62  75  69
  3  153  145  141
  3  17  26  23
  3  116  129  125
  3  192  181  178
  3  117  108  105
  3  6  11  9
  3  79  76  64
  3  91  104  97
  3  134  126  123
  3  35  50  44
  3  140  154  147
  3  172  162  160
  3  102  95  87
  3  2  6  4
  3  84  79  66
  3  75  91  85
  3  145  134  133
  3  26  35  33
  3  129  140  137
  3  181  172  171
  3  108  102  96
  3  11  17  15
  3  197  192  189
  3  104  116  111
  3  126  117  114
  3  50  62  56
  3  154  164  158
  3  162  153  152
  3  95  88  81
  3  14  12  7
  3  14  7  9
  3  14  9  18
  3  37  30  40
  3  163  165  155
  3  22  20  14
  3  22  14  18
  3  22  18  25
  3  25  18  28
  3  22  25  32
  3  158  169  159
  3  158  159  149
  3  27  37  36
  3  36  37  45
  3  45  37  49
  3  36  45  48
  3  48  45  63
  3  63  45  57
  3  48  63  66
  3  66  63  72
  3  174  163  170
  3  170  163  159
  3  159  163  151
  3  30  22  32
  3  30  32  40
  3  165  168  157
  3  165  157  155
  3  155  157  146
  3  146  157  150
  3  155  146  142
  3  167  158  164
  3  166  173  178
  3  149  159  151
  3  146  150  138
  3  157  161  150
  3  150  161  156
  3  156  161  166
  3  156  166  160
  3  150  156  144
  3  144  156  148
  3  150  144  138
  3  138  144  131
  3  131  144  136
  3  138  131  127
  3  136  144  148
  3  136  148  143
  3  143  148  152
  3  143  152  141
  3  143  141  132
  3  132  141  133
  3  143  132  136
  3  132  133  121
  3  121  133  123
  3  132  121  124
  3  131  136  124
  3  127  131  119
  3  138  127  135
  3  141  152  153
  3  133  141  145
  3  123  133  134
  3  124  121  109
  3  132  124  136
  3  49  37  40
  3  49  40  52
  3  52  40  43
  3  49  52  59
  3  155  142  151
  3  155  151  163
  3  45  49  57
  3  142  146  135
  3  135  146  138
  3  142  135  130
  3  130  135  122
  3  142  130  139
  3  122  135  127
  3  122  127  115
  3  115  127  119
  3  115  119  106
  3  122  115  110
  3  106  119  113
  3  115  106  103
  3  110  115  103
  3  110  103  98
  3  98  103  90
  3  110  98  107
  3  122  110  120
  3  113  119  124
  3  113  124  109
  3  106  113  99
  3  103  106  94
  3  130  122  120
  3  130  120  128
  3  128  120  118
  3  130  128  139
  3  139  128  137
  3  118  120  107
  3  118  107  111
  3  118  111  125
  3  118  125  128
  3  107  120  110
  3  142  139  151
  3  125  111  116
  3  90  103  94
  3  90  94  80
  3  80  94  86
  3  90  80  73
  3  98  90  83
  3  107  98  97
  3  106  99  94
  3  86  94  99
  3  80  86  68
  3  73  80  61
  3  99  113  109
  3  158  149  147
  3  90  73  83
  3  83  67  69
  3  189  195  197
  3  44  50  56
  3  44  56  53
  3  119  131  124
  3  53  56  67
  3  171  172  160
  3  171  160  166
  3  48  66  51
  3  48  51  39
  3  125  129  137
  3  125  137  128
  3  85  91  97
  3  85  97  83
  3  114  117  105
  3  114  105  101
  3  101  105  92
  3  114  101  112
  3  160  162  152
  3  160  152  148
  3  15  17  23
  3  15  23  18
  3  43  40  32
  3  97  104  111
  3  97  111  107
  3  33  35  44
  3  33  44  41
  3  41  44  53
  3  41  53  46
  3  33  41  28
  3  46  53  61
  3  41  46  38
  3  148  156  160
  3  59  52  65
  3  178  183  189
  3  178  189  192
  3  147  154  158
  3  69  75  85
  3  69  85  83
  3  96  102  87
  3  96  87  82
  3  82  87  70
  3  96  82  92
  3  92  82  77
  3  96  92  105
  3  96  105  108
  3  77  82  59
  3  92  77  89
  3  9  4  6
  3  56  62  69
  3  56  69  67
  3  67  83  73
  3  67  73  61
  3  64  66  79
  3  23  26  33
  3  23  33  28
  3  23  28  18
  3  25  28  38
  3  38  28  41
  3  87  95  81
  3  87  81  70
  3  70  81  63
  3  72  84  66
  3  123  126  114
  3  123  114  112
  3  123  112  121
  3  137  140  147
  3  137  147  149
  3  81  88  72
  3  81  72  63
  3  181  171  178
  3  11  15  9
  3  49  59  57
  3  57  59  70
  3  57  70  63
  3  98  83  97
  3  18  9  15
  3  32  25  38
  3  52  43  58
  3  109  121  112
  3  89  77  71
  3  71  77  65
  3  65  77  59
  3  71  65  58
  3  61  80  68
  3  43  32  38
  3  82  70  59
  3  68  86  78
  3  78  86  93
  3  68  78  58
  3  93  86  99
  3  93  99  109
  3  78  93  89
  3  112  101  100
  3  100  101  89
  3  89  101  92
  3  100  89  93
  3  100  93  109
  3  112  100  109
  3  89  71  78
  3  78  71  58
  3  65  52  58
  3  58  43  54
  3  54  43  38
  3  58  54  68
  3  53  67  61
  3  38  46  54
  3  54  46  61
  3  149  151  139
  3  166  178  171
  3  61  68  54
  3  149  139  137

CELL_TYPES 346
5
5
5
5
5
5
5
5
5
5
5
5
5
5
5
5
5
5
5
5
5
5
5
5
5
5
5
5
5
5
5
5
5
5
5
5
5
5
5
5
5
5
5
5
5
5
5
5
5
5
5
5
5
5
5
5
5
5
5
5
5
5
5
5
5
5
5
5
5
5
5
5
5
5
5
5
5
5
5
5
5
5
5
5
5
5
5
5
5
5
5
5
5
5
5
5
5
5
5
5
5
5
5
5
5
5
5
5
5
5
5
5
5
5
5
5
5
5
5
5
5
5
5
5
5
5
5
5
5
5
5
5
5
5
5
5
5
5
5
5
5
5
5
5
5
5
5
5
5
5
5
5
5
5
5
5
5
5
5
5
5
5
5
5
5
5
5
5
5
5
5
5
5
5
5
5
5
5
5
5
5
5
5
5
5
5
5
5
5
5
5
5
5
5
5
5
5
5
5
5
5
5
5
5
5
5
5
5
5
5
5
5
5
5
5
5
5
5
5
5
5
5
5
5
5
5
5
5
5
5
5
5
5
5
5
5
5
5
5
5
5
5
5
5
5
5
5
5
5
5
5
5
5
5
5
5
5
5
5
5
5
5
5
5
5
5
5
5
5
5
5
5
5
5
5
5
5
5
5
5
5
5
5
5
5
5
5
5
5
5
5
5
5
5
5
5
5
5
5
5
5
5
5
5
5
5
5
5
5
5
5
5
5
5
5
5
5
5
5
5
5
5
5
5
5
5
5
5
5
5
5
5
5
5
5
5
5
5
5
5
5
5
5
5
5
5

CELL_DATA 346
TENSORS strain double
  NaN  NaN  0.000000
  NaN  NaN  0.000000
  0.000000  0.000000  0.000000

  NaN  NaN  0.000000
  NaN  NaN  0.000000
  0.000000  0.000000  0.000000

  NaN  NaN  0.000000
  NaN  NaN  0.000000
  0.000000  0.000000  0.000000

  NaN  NaN  0.000000
  NaN  NaN  0.000000
  0.000000  0.000000  0.000000

  NaN  NaN  0.000000
  NaN  NaN  0.000000
  0.000000  0.000000  0.000000

  NaN  NaN  0.000000
  NaN  NaN  0.000000
  0.000000  0.000000  0.000000

  NaN  NaN  0.000000
  NaN  NaN  0.000000
  0.000000  0.000000  0.000000

  NaN  NaN  0.000000
  NaN  NaN  0.000000
  0.000000  0.000000  0.000000

  NaN  NaN  0.000000
  NaN  NaN  0.000000
  0.000000  0.000000  0.000000

  NaN  NaN  0.000000
  NaN  NaN  0.000000
  0.000000  0.000000  0.000000

  NaN  NaN  0.000000
  NaN  NaN  0.000000
  0.000000  0.000000  0.000000

  NaN  NaN  0.000000
  NaN  NaN  0.000000
  0.000000  0.000000  0.000000

  NaN  NaN  0.000000
  NaN  NaN  0.000000
  0.000000  0.000000  0.000000

  NaN  NaN  0.000000
  NaN  NaN  0.000000
  0.000000  0.000000  0.000000

  NaN  NaN  0.000000
  NaN  NaN  0.000000
  0.000000  0.000000  0.000000

  NaN  NaN  0.000000
  NaN  NaN  0.000000
  0.000000  0.000000  0.000000

  NaN  NaN  0.000000
  NaN  NaN  0.000000
  0.000000  0.000000  0.000000

  NaN  NaN  0.000000
  NaN  NaN  0.000000
  0.000000  0.000000  0.000000

  NaN  NaN  0.000000
  NaN  NaN  0.000000
  0.000000  0.000000  0.000000

  NaN  NaN  0.000000
  NaN  NaN  0.000000
  0.000000  0.000000  0.000000

  NaN  NaN  0.000000
  NaN  NaN  0.000000
  0.000000  0.000000  0.000000

  NaN  NaN  0.000000
  NaN  NaN  0.000000
  0.000000  0.000000  0.000000

  NaN  NaN  0.000000
  NaN  NaN  0.000000
  0.000000  0.000000  0.000000

  NaN  NaN  0.000000
  NaN  NaN  0.000000
  0.000000  0.000000  0.000000

  NaN  NaN  0.000000
  NaN  NaN  0.000000
  0.000000  0.000000  0.000000

  NaN  NaN  0.000000
  NaN  NaN  0.000000
  0.000000  0.000000  0.000000

  NaN  NaN  0.000000
  NaN  NaN  0.000000
  0.000000  0.000000  0.000000

  NaN  NaN  0.000000
  NaN  NaN  0.000000
  0.000000  0.000000  0.000000

  NaN  NaN  0.000000
  NaN  NaN  0.000000
  0.000000  0.000000  0.000000

  NaN  NaN  0.000000
  NaN  NaN  0.000000
  0.000000  0.000000  0.000000

  NaN  NaN  0.000000
  NaN  NaN  0.000000
  0.000000  0.000000  0.000000

  NaN  NaN  0.000000
  NaN  NaN  0.000000
  0.000000  0.000000  0.000000

  NaN  NaN  0.000000
  NaN  NaN  0.000000
  0.000000  0.000000  0.000000

  NaN  NaN  0.000000
  NaN  NaN  0.000000
  0.000000  0.000000  0.000000

  NaN  NaN  0.000000
  NaN  NaN  0.000000
  0.000000  0.000000  0.000000

  NaN  NaN  0.000000
  NaN  NaN  0.000000
  0.000000  0.000000  0.000000

  NaN  NaN  0.000000
  NaN  NaN  0.000000
  0.000000  0.000000  0.000000

  NaN  NaN  0.000000
  NaN  NaN  0.000000
  0.000000  0.000000  0.000000

  NaN  NaN  0.000000
  NaN  NaN  0.000000
  0.000000  0.000000  0.000000

  NaN  NaN  0.000000
  NaN  NaN  0.000000
  0.000000  0.000000  0.000000

  NaN  NaN  0.000000
  NaN  NaN  0.000000
  0.000000  0.000000  0.000000

  NaN  NaN  0.000000
  NaN  NaN  0.000000
  0.000000  0.000000  0.000000

  NaN  NaN  0.000000
  NaN  NaN  0.000000
  0.000000  0.000000  0.000000

  NaN  NaN  0.000000
  NaN  NaN  0.000000
  0.000000  0.000000  0.000000

  NaN  NaN  0.000000
  NaN  NaN  0.000000
  0.000000  0.000000  0.000000

  NaN  NaN  0.000000
  NaN  NaN  0.000000
  0.000000  0.000000  0.000000

  NaN  NaN  0.000000
  NaN  NaN  0.000000
  0.000000  0.000000  0.000000

  NaN  NaN  0.000000
  NaN  NaN  0.000000
  0.000000  0.000000  0.000000

  NaN  NaN  0.000000
  NaN  NaN  0.000000
  0.000000  0.000000  0.000000

  NaN  NaN  0.000000
  NaN  NaN  0.000000
  0.000000  0.000000  0.000000

  NaN  NaN  0.000000
  NaN  NaN  0.000000
  0.000000  0.000000  0.000000

  NaN  NaN  0.000000
  NaN  NaN  0.000000
  0.000000  0.000000  0.000000

  NaN  NaN  0.000000
  NaN  NaN  0.000000
  0.000000  0.000000  0.000000

  NaN  NaN  0.000000
  NaN  NaN  0.000000
  0.000000  0.000000  0.000000

  NaN  NaN  0.000000
  NaN  NaN  0.000000
  0.000000  0.000000  0.000000

  NaN  NaN  0.000000
  NaN  NaN  0.000000
  0.000000  0.000000  0.000000

  NaN  NaN  0.000000
  NaN  NaN  0.000000
  0.000000  0.000000  0.000000

  NaN  NaN  0.000000
  NaN  NaN  0.000000
  0.000000  0.000000  0.000000

  NaN  NaN  0.000000
  NaN  NaN  0.000000
  0.000000  0.000000  0.000000

  NaN  NaN  0.000000
  NaN  NaN  0.000000
  0.000000  0.000000  0.000000

  NaN  NaN  0.000000
  NaN  NaN  0.000000
  0.000000  0.000000  0.000000

  NaN  NaN  0.000000
  NaN  NaN  0.000000
  0.000000  0.000000  0.000000

  NaN  NaN  0.000000
  NaN  NaN  0.000000
  0.000000  0.000000  0.000000

  NaN  NaN  0.000000
  NaN  NaN  0.000000
  0.000000  0.000000  0.000000

  NaN  NaN  0.000000
  NaN  NaN  0.000000
  0.000000  0.000000  0.000000

  NaN  NaN  0.000000
  NaN  NaN  0.000000
  0.000000  0.000000  0.000000

  NaN  NaN  0.000000
  NaN  NaN  0.000000
  0.000000  0.000000  0.000000

  NaN  NaN  0.000000
  NaN  NaN  0.000000
  0.000000  0.000000  0.000000

  NaN  NaN  0.000000
  NaN  NaN  0.000000
  0.000000  0.000000  0.000000

  NaN  NaN  0.000000
  NaN  NaN  0.000000
  0.000000  0.000000  0.000000

  NaN  NaN  0.000000
  NaN  NaN  0.000000
  0.000000  0.000000  0.000000

  NaN  NaN  0.000000
  NaN  NaN  0.000000
  0.000000  0.000000  0.000000

  NaN  NaN  0.000000
  NaN  NaN  0.000000
  0.000000  0.000000  0.000000

  NaN  NaN  0.000000
  NaN  NaN  0.000000
  0.000000  0.000000  0.000000

  NaN  NaN  0.000000
  NaN  NaN  0.000000
  0.000000  0.000000  0.000000

  NaN  NaN  0.000000
  NaN  NaN  0.000000
  0.000000  0.000000  0.000000

  NaN  NaN  0.000000
  NaN  NaN  0.000000
  0.000000  0.000000  0.000000

  NaN  NaN  0.000000
  NaN  NaN  0.000000
  0.000000  0.000000  0.000000

  NaN  NaN  0.000000
  NaN  NaN  0.000000
  0.000000  0.000000  0.000000

  NaN  NaN  0.000000
  NaN  NaN  0.000000
  0.000000  0.000000  0.000000

  NaN  NaN  0.000000
  NaN  NaN  0.000000
  0.000000  0.000000  0.000000

  NaN  NaN  0.000000
  NaN  NaN  0.000000
  0.000000  0.000000  0.000000

  NaN  NaN  0.000000
  NaN  NaN  0.000000
  0.000000  0.000000  0.000000

  NaN  NaN  0.000000
  NaN  NaN  0.000000
  0.000000  0.000000  0.000000

  NaN  NaN  0.000000
  NaN  NaN  0.000000
  0.000000  0.000000  0.000000

  NaN  NaN  0.000000
  NaN  NaN  0.000000
  0.000000  0.000000  0.000000

  NaN  NaN  0.000000
  NaN  NaN  0.000000
  0.000000  0.000000  0.000000

  NaN  NaN  0.000000
  NaN  NaN  0.000000
  0.000000  0.000000  0.000000

  NaN  NaN  0.000000
  NaN  NaN  0.000000
  0.000000  0.000000  0.000000

  NaN  NaN  0.000000
  NaN  NaN  0.000000
  0.000000  0.000000  0.000000

  NaN  NaN  0.000000
  NaN  NaN  0.000000
  0.000000  0.000000  0.000000

  NaN  NaN  0.000000
  NaN  NaN  0.000000
  0.000000  0.000000  0.000000

  NaN  NaN  0.000000
  NaN  NaN  0.000000
  0.000000  0.000000  0.000000

  NaN  NaN  0.000000
  NaN  NaN  0.000000
  0.000000  0.000000  0.000000

  NaN  NaN  0.000000
  NaN  NaN  0.000000
  0.000000  0.000000  0.000000

  NaN  NaN  0.000000
  NaN  NaN  0.000000
  0.000000  0.000000  0.000000

  NaN  NaN  0.000000
  NaN  NaN  0.000000
  0.000000  0.000000  0.000000

  NaN  NaN  0.000000
  NaN  NaN  0.000000
  0.000000  0.000000  0.000000

  NaN  NaN  0.000000
  NaN  NaN  0.000000
  0.000000  0.000000  0.000000

  NaN  NaN  0.000000
  NaN  NaN  0.000000
  0.000000  0.000000  0.000000

  NaN  NaN  0.000000
  NaN  NaN  0.000000
  0.000000  0.000000  0.000000

  NaN  NaN  0.000000
  NaN  NaN  0.000000
  0.000000  0.000000  0.000000

  NaN  NaN  0.000000
  NaN  NaN  0.000000
  0.000000  0.000000  0.000000

  NaN  NaN  0.000000
  NaN  NaN  0.000000
  0.000000  0.000000  0.000000

  NaN  NaN  0.000000
  NaN  NaN  0.000000
  0.000000  0.000000  0.000000

  NaN  NaN  0.000000
  NaN  NaN  0.000000
  0.000000  0.000000  0.000000

  NaN  NaN  0.000000
  NaN  NaN  0.000000
  0.000000  0.000000  0.000000

  NaN  NaN  0.000000
  NaN  NaN  0.000000
  0.000000  0.000000  0.000000

  NaN  NaN  0.000000
  NaN  NaN  0.000000
  0.000000  0.000000  0.000000

  NaN  NaN  0.000000
  NaN  NaN  0.000000
  0.000000  0.000000  0.000000

  NaN  NaN  0.000000
  NaN  NaN  0.000000
  0.000000  0.000000  0.000000

  NaN  NaN  0.000000
  NaN  NaN  0.000000
  0.000000  0.000000  0.000000

  NaN  NaN  0.000000
  NaN  NaN  0.000000
  0.000000  0.000000  0.000000

  NaN  NaN  0.000000
  NaN  NaN  0.000000
  0.000000  0.000000  0.000000

  NaN  NaN  0.000000
  NaN  NaN  0.000000
  0.000000  0.000000  0.000000

  NaN  NaN  0.000000
  NaN  NaN  0.000000
  0.000000  0.000000  0.000000

  NaN  NaN  0.000000
  NaN  NaN  0.000000
  0.000000  0.000000  0.000000

  NaN  NaN  0.000000
  NaN  NaN  0.000000
  0.000000  0.000000  0.000000

  NaN  NaN  0.000000
  NaN  NaN  0.000000
  0.000000  0.000000  0.000000

  NaN  NaN  0.000000
  NaN  NaN  0.000000
  0.000000  0.000000  0.000000

  NaN  NaN  0.000000
  NaN  NaN  0.000000
  0.000000  0.000000  0.000000

  NaN  NaN  0.000000
  NaN  NaN  0.000000
  0.000000  0.000000  0.000000

  NaN  NaN  0.000000
  NaN  NaN  0.000000
  0.000000  0.000000  0.000000

  NaN  NaN  0.000000
  NaN  NaN  0.000000
  0.000000  0.000000  0.000000

  NaN  NaN  0.000000
  NaN  NaN  0.000000
  0.000000  0.000000  0.000000

  NaN  NaN  0.000000
  NaN  NaN  0.000000
  0.000000  0.000000  0.000000

  NaN  NaN  0.000000
  NaN  NaN  0.000000
  0.000000  0.000000  0.000000

  NaN  NaN  0.000000
  NaN  NaN  0.000000
  0.000000  0.000000  0.000000

  NaN  NaN  0.000000
  NaN  NaN  0.000000
  0.000000  0.000000  0.000000

  NaN  NaN  0.000000
  NaN  NaN  0.000000
  0.000000  0.000000  0.000000

  NaN  NaN  0.000000
  NaN  NaN  0.000000
  0.000000  0.000000  0.000000

  NaN  NaN  0.000000
  NaN  NaN  0.000000
  0.000000  0.000000  0.000000

  NaN  NaN  0.000000
  NaN  NaN  0.000000
  0.000000  0.000000  0.000000

  NaN  NaN  0.000000
  NaN  NaN  0.000000
  0.000000  0.000000  0.000000

  NaN  NaN  0.000000
  NaN  NaN  0.000000
  0.000000  0.000000  0.000000

  NaN  NaN  0.000000
  NaN  NaN  0.000000
  0.000000  0.000000  0.000000

  NaN  NaN  0.000000
  NaN  NaN  0.000000
  0.000000  0.000000  0.000000

  NaN  NaN  0.000000
  NaN  NaN  0.000000
  0.000000  0.000000  0.000000

  NaN  NaN  0.000000
  NaN  NaN  0.000000
  0.000000  0.000000  0.000000

  NaN  NaN  0.000000
  NaN  NaN  0.000000
  0.000000  0.000000  0.000000

  NaN  NaN  0.000000
  NaN  NaN  0.000000
  0.000000  0.000000  0.000000

  NaN  NaN  0.000000
  NaN  NaN  0.000000
  0.000000  0.000000  0.000000

  NaN  NaN  0.000000
  NaN  NaN  0.000000
  0.000000  0.000000  0.000000

  NaN  NaN  0.000000
  NaN  NaN  0.000000
  0.000000  0.000000  0.000000

  NaN  NaN  0.000000
  NaN  NaN  0.000000
  0.000000  0.000000  0.000000

  NaN  NaN  0.000000
  NaN  NaN  0.000000
  0.000000  0.000000  0.000000

  NaN  NaN  0.000000
  NaN  NaN  0.000000
  0.000000  0.000000  0.000000

  NaN  NaN  0.000000
  NaN  NaN  0.000000
  0.000000  0.000000  0.000000

  NaN  NaN  0.000000
  NaN  NaN  0.000000
  0.000000  0.000000  0.000000

  NaN  NaN  0.000000
  NaN  NaN  0.000000
  0.000000  0.000000  0.000000

  NaN  NaN  0.000000
  NaN  NaN  0.000000
  0.000000  0.000000  0.000000

  NaN  NaN  0.000000
  NaN  NaN  0.000000
  0.000000  0.000000  0.000000

  NaN  NaN  0.000000
  NaN  NaN  0.000000
  0.000000  0.000000  0.000000

  NaN  NaN  0.000000
  NaN  NaN  0.000000
  0.000000  0.000000  0.000000

  NaN  NaN  0.000000
  NaN  NaN  0.000000
  0.000000  0.000000  0.000000

  NaN  NaN  0.000000
  NaN  NaN  0.000000
  0.000000  0.000000  0.000000

  NaN  NaN  0.000000
  NaN  NaN  0.000000
  0.000000  0.000000  0.000000

  NaN  NaN  0.000000
  NaN  NaN  0.000000
  0.000000  0.000000  0.000000

  NaN  NaN  0.000000
  NaN  NaN  0.000000
  0.000000  0.000000  0.000000

  NaN  NaN  0.000000
  NaN  NaN  0.000000
  0.000000  0.000000  0.000000

  NaN  NaN  0.000000
  NaN  NaN  0.000000
  0.000000  0.000000  0.000000

  NaN  NaN  0.000000
  NaN  NaN  0.000000
  0.000000  0.000000  0.000000

  NaN  NaN  0.000000
  NaN  NaN  0.000000
  0.000000  0.000000  0.000000

  NaN  NaN  0.000000
  NaN  NaN  0.000000
  0.000000  0.000000  0.000000

  NaN  NaN  0.000000
  NaN  NaN  0.000000
  0.000000  0.000000  0.000000

  NaN  NaN  0.000000
  NaN  NaN  0.000000
  0.000000  0.000000  0.000000

  NaN  NaN  0.000000
  NaN  NaN  0.000000
  0.000000  0.000000  0.000000

  NaN  NaN  0.000000
  NaN  NaN  0.000000
  0.000000  0.000000  0.000000

  NaN  NaN  0.000000
  NaN  NaN  0.000000
  0.000000  0.000000  0.000000

  NaN  NaN  0.000000
  NaN  NaN  0.000000
  0.000000  0.000000  0.000000

  NaN  NaN  0.000000
  NaN  NaN  0.000000
  0.000000  0.000000  0.000000

  NaN  NaN  0.000000
  NaN  NaN  0.000000
  0.000000  0.000000  0.000000

  NaN  NaN  0.000000
  NaN  NaN  0.000000
  0.000000  0.000000  0.000000

  NaN  NaN  0.000000
  NaN  NaN  0.000000
  0.000000  0.000000  0.000000

  NaN  NaN  0.000000
  NaN  NaN  0.000000
  0.000000  0.000000  0.000000

  NaN  NaN  0.000000
  NaN  NaN  0.000000
  0.000000  0.000000  0.000000

  NaN  NaN  0.000000
  NaN  NaN  0.000000
  0.000000  0.000000  0.000000

  NaN  NaN  0.000000
  NaN  NaN  0.000000
  0.000000  0.000000  0.000000

  NaN  NaN  0.000000
  NaN  NaN  0.000000
  0.000000  0.000000  0.000000

  NaN  NaN  0.000000
  NaN  NaN  0.000000
  0.000000  0.000000  0.000000

  NaN  NaN  0.000000
  NaN  NaN  0.000000
  0.000000  0.000000  0.000000

  NaN  NaN  0.000000
  NaN  NaN  0.000000
  0.000000  0.000000  0.000000

  NaN  NaN  0.000000
  NaN  NaN  0.000000
  0.000000  0.000000  0.000000

  NaN  NaN  0.000000
  NaN  NaN  0.000000
  0.000000  0.000000  0.000000

  NaN  NaN  0.000000
  NaN  NaN  0.000000
  0.000000  0.000000  0.000000

  NaN  NaN  0.000000
  NaN  NaN  0.000000
  0.000000  0.000000  0.000000

  NaN  NaN  0.000000
  NaN  NaN  0.000000
  0.000000  0.000000  0.000000

  NaN  NaN  0.000000
  NaN  NaN  0.000000
  0.000000  0.000000  0.000000

  NaN  NaN  0.000000
  NaN  NaN  0.000000
  0.000000  0.000000  0.000000

  NaN  NaN  0.000000
  NaN  NaN  0.000000
  0.000000  0.000000  0.000000

  NaN  NaN  0.000000
  NaN  NaN  0.000000
  0.000000  0.000000  0.000000

  NaN  NaN  0.000000
  NaN  NaN  0.000000
  0.000000  0.000000  0.000000

  NaN  NaN  0.000000
  NaN  NaN  0.000000
  0.000000  0.000000  0.000000

  NaN  NaN  0.000000
  NaN  NaN  0.000000
  0.000000  0.000000  0.000000

  NaN  NaN  0.000000
  NaN  NaN  0.000000
  0.000000  0.000000  0.000000

  NaN  NaN  0.000000
  NaN  NaN  0.000000
  0.000000  0.000000  0.000000

  NaN  NaN  0.000000
  NaN  NaN  0.000000
  0.000000  0.000000  0.000000

  NaN  NaN  0.000000
  NaN  NaN  0.000000
  0.000000  0.000000  0.000000

  NaN  NaN  0.000000
  NaN  NaN  0.000000
  0.000000  0.000000  0.000000

  NaN  NaN  0.000000
  NaN  NaN  0.000000
  0.000000  0.000000  0.000000

  NaN  NaN  0.000000
  NaN  NaN  0.000000
  0.000000  0.000000  0.000000

  NaN  NaN  0.000000
  NaN  NaN  0.000000
  0.000000  0.000000  0.000000

  NaN  NaN  0.000000
  NaN  NaN  0.000000
  0.000000  0.000000  0.000000

  NaN  NaN  0.000000
  NaN  NaN  0.000000
  0.000000  0.000000  0.000000

  NaN  NaN  0.000000
  NaN  NaN  0.000000
  0.000000  0.000000  0.000000

  NaN  NaN  0.000000
  NaN  NaN  0.000000
  0.000000  0.000000  0.000000

  NaN  NaN  0.000000
  NaN  NaN  0.000000
  0.000000  0.000000  0.000000

  NaN  NaN  0.000000
  NaN  NaN  0.000000
  0.000000  0.000000  0.000000

  NaN  NaN  0.000000
  NaN  NaN  0.000000
  0.000000  0.000000  0.000000

  NaN  NaN  0.000000
  NaN  NaN  0.000000
  0.000000  0.000000  0.000000

  NaN  NaN  0.000000
  NaN  NaN  0.000000
  0.000000  0.000000  0.000000

  NaN  NaN  0.000000
  NaN  NaN  0.000000
  0.000000  0.000000  0.000000

  NaN  NaN  0.000000
  NaN  NaN  0.000000
  0.000000  0.000000  0.000000

  NaN  NaN  0.000000
  NaN  NaN  0.000000
  0.000000  0.000000  0.000000

  NaN  NaN  0.000000
  NaN  NaN  0.000000
  0.000000  0.000000  0.000000

  NaN  NaN  0.000000
  NaN  NaN  0.000000
  0.000000  0.000000  0.000000

  NaN  NaN  0.000000
  NaN  NaN  0.000000
  0.000000  0.000000  0.000000

  NaN  NaN  0.000000
  NaN  NaN  0.000000
  0.000000  0.000000  0.000000

  NaN  NaN  0.000000
  NaN  NaN  0.000000
  0.000000  0.000000  0.000000

  NaN  NaN  0.000000
  NaN  NaN  0.000000
  0.000000  0.000000  0.000000

  NaN  NaN  0.000000
  NaN  NaN  0.000000
  0.000000  0.000000  0.000000

  NaN  NaN  0.000000
  NaN  NaN  0.000000
  0.000000  0.000000  0.000000

  NaN  NaN  0.000000
  NaN  NaN  0.000000
  0.000000  0.000000  0.000000

  NaN  NaN  0.000000
  NaN  NaN  0.000000
  0.000000  0.000000  0.000000

  NaN  NaN  0.000000
  NaN  NaN  0.000000
  0.000000  0.000000  0.000000

  NaN  NaN  0.000000
  NaN  NaN  0.000000
  0.000000  0.000000  0.000000

  NaN  NaN  0.000000
  NaN  NaN  0.000000
  0.000000  0.000000  0.000000

  NaN  NaN  0.000000
  NaN  NaN  0.000000
  0.000000  0.000000  0.000000

  NaN  NaN  0.000000
  NaN  NaN  0.000000
  0.000000  0.000000  0.000000

  NaN  NaN  0.000000
  NaN  NaN  0.000000
  0.000000  0.000000  0.000000

  NaN  NaN  0.000000
  NaN  NaN  0.000000
  0.000000  0.000000  0.000000

  NaN  NaN  0.000000
  NaN  NaN  0.000000
  0.000000  0.000000  0.000000

  NaN  NaN  0.000000
  NaN  NaN  0.000000
  0.000000  0.000000  0.000000

  NaN  NaN  0.000000
  NaN  NaN  0.000000
  0.000000  0.000000  0.000000

  NaN  NaN  0.000000
  NaN  NaN  0.000000
  0.000000  0.000000  0.000000

  NaN  NaN  0.000000
  NaN  NaN  0.000000
  0.000000  0.000000  0.000000

  NaN  NaN  0.000000
  NaN  NaN  0.000000
  0.000000  0.000000  0.000000

  NaN  NaN  0.000000
  NaN  NaN  0.000000
  0.000000  0.000000  0.000000

  NaN  NaN  0.000000
  NaN  NaN  0.000000
  0.000000  0.000000  0.000000

  NaN  NaN  0.000000
  NaN  NaN  0.000000
  0.000000  0.000000  0.000000

  NaN  NaN  0.000000
  NaN  NaN  0.000000
  0.000000  0.000000  0.000000

  NaN  NaN  0.000000
  NaN  NaN  0.000000
  0.000000  0.000000  0.000000

  NaN  NaN  0.000000
  NaN  NaN  0.000000
  0.000000  0.000000  0.000000

  NaN  NaN  0.000000
  NaN  NaN  0.000000
  0.000000  0.000000  0.000000

  NaN  NaN  0.000000
  NaN  NaN  0.000000
  0.000000  0.000000  0.000000

  NaN  NaN  0.000000
  NaN  NaN  0.000000
  0.000000  0.000000  0.000000

  NaN  NaN  0.000000
  NaN  NaN  0.000000
  0.000000  0.000000  0.000000

  NaN  NaN  0.000000
  NaN  NaN  0.000000
  0.000000  0.000000  0.000000

  NaN  NaN  0.000000
  NaN  NaN  0.000000
  0.000000  0.000000  0.000000

  NaN  NaN  0.000000
  NaN  NaN  0.000000
  0.000000  0.000000  0.000000

  NaN  NaN  0.000000
  NaN  NaN  0.000000
  0.000000  0.000000  0.000000

  NaN  NaN  0.000000
  NaN  NaN  0.000000
  0.000000  0.000000  0.000000

  NaN  NaN  0.000000
  NaN  NaN  0.000000
  0.000000  0.000000  0.000000

  NaN  NaN  0.000000
  NaN  NaN  0.000000
  0.000000  0.000000  0.000000

  NaN  NaN  0.000000
  NaN  NaN  0.000000
  0.000000  0.000000  0.000000

  NaN  NaN  0.000000
  NaN  NaN  0.000000
  0.000000  0.000000  0.000000

  NaN  NaN  0.000000
  NaN  NaN  0.000000
  0.000000  0.000000  0.000000

  NaN  NaN  0.000000
  NaN  NaN  0.000000
  0.000000  0.000000  0.000000

  NaN  NaN  0.000000
  NaN  NaN  0.000000
  0.000000  0.000000  0.000000

  NaN  NaN  0.000000
  NaN  NaN  0.000000
  0.000000  0.000000  0.000000

  NaN  NaN  0.000000
  NaN  NaN  0.000000
  0.000000  0.000000  0.000000

  NaN  NaN  0.000000
  NaN  NaN  0.000000
  0.000000  0.000000  0.000000

  NaN  NaN  0.000000
  NaN  NaN  0.000000
  0.000000  0.000000  0.000000

  NaN  NaN  0.000000
  NaN  NaN  0.000000
  0.000000  0.000000  0.000000

  NaN  NaN  0.000000
  NaN  NaN  0.000000
  0.000000  0.000000  0.000000

  NaN  NaN  0.000000
  NaN  NaN  0.000000
  0.000000  0.000000  0.000000

  NaN  NaN  0.000000
  NaN  NaN  0.000000
  0.000000  0.000000  0.000000

  NaN  NaN  0.000000
  NaN  NaN  0.000000
  0.000000  0.000000  0.000000

  NaN  NaN  0.000000
  NaN  NaN  0.000000
  0.000000  0.000000  0.000000

  NaN  NaN  0.000000
  NaN  NaN  0.000000
  0.000000  0.000000  0.000000

  NaN  NaN  0.000000
  NaN  NaN  0.000000
  0.000000  0.000000  0.000000

  NaN  NaN  0.000000
  NaN  NaN  0.000000
  0.000000  0.000000  0.000000

  NaN  NaN  0.000000
  NaN  NaN  0.000000
  0.000000  0.000000  0.000000

  NaN  NaN  0.000000
  NaN  NaN  0.000000
  0.000000  0.000000  0.000000

  NaN  NaN  0.000000
  NaN  NaN  0.000000
  0.000000  0.000000  0.000000

  NaN  NaN  0.000000
  NaN  NaN  0.000000
  0.000000  0.000000  0.000000

  NaN  NaN  0.000000
  NaN  NaN  0.000000
  0.000000  0.000000  0.000000

  NaN  NaN  0.000000
  NaN  NaN  0.000000
  0.000000  0.000000  0.000000

  NaN  NaN  0.000000
  NaN  NaN  0.000000
  0.000000  0.000000  0.000000

  NaN  NaN  0.000000
  NaN  NaN  0.000000
  0.000000  0.000000  0.000000

  NaN  NaN  0.000000
  NaN  NaN  0.000000
  0.000000  0.000000  0.000000

  NaN  NaN  0.000000
  NaN  NaN  0.000000
  0.000000  0.000000  0.000000

  NaN  NaN  0.000000
  NaN  NaN  0.000000
  0.000000  0.000000  0.000000

  NaN  NaN  0.000000
  NaN  NaN  0.000000
  0.000000  0.000000  0.000000

  NaN  NaN  0.000000
  NaN  NaN  0.000000
  0.000000  0.000000  0.000000

  NaN  NaN  0.000000
  NaN  NaN  0.000000
  0.000000  0.000000  0.000000

  NaN  NaN  0.000000
  NaN  NaN  0.000000
  0.000000  0.000000  0.000000

  NaN  NaN  0.000000
  NaN  NaN  0.000000
  0.000000  0.000000  0.000000

  NaN  NaN  0.000000
  NaN  NaN  0.000000
  0.000000  0.000000  0.000000

  NaN  NaN  0.000000
  NaN  NaN  0.000000
  0.000000  0.000000  0.000000

  NaN  NaN  0.000000
  NaN  NaN  0.000000
  0.000000  0.000000  0.000000

  NaN  NaN  0.000000
  NaN  NaN  0.000000
  0.000000  0.000000  0.000000

  NaN  NaN  0.000000
  NaN  NaN  0.000000
  0.000000  0.000000  0.000000

  NaN  NaN  0.000000
  NaN  NaN  0.000000
  0.000000  0.000000  0.000000

  NaN  NaN  0.000000
  NaN  NaN  0.000000
  0.000000  0.000000  0.000000

  NaN  NaN  0.000000
  NaN  NaN  0.000000
  0.000000  0.000000  0.000000

  NaN  NaN  0.000000
  NaN  NaN  0.000000
  0.000000  0.000000  0.000000

  NaN  NaN  0.000000
  NaN  NaN  0.000000
  0.000000  0.000000  0.000000

  NaN  NaN  0.000000
  NaN  NaN  0.000000
  0.000000  0.000000  0.000000

  NaN  NaN  0.000000
  NaN  NaN  0.000000
  0.000000  0.000000  0.000000

  NaN  NaN  0.000000
  NaN  NaN  0.000000
  0.000000  0.000000  0.000000

  NaN  NaN  0.000000
  NaN  NaN  0.000000
  0.000000  0.000000  0.000000

  NaN  NaN  0.000000
  NaN  NaN  0.000000
  0.000000  0.000000  0.000000

  NaN  NaN  0.000000
  NaN  NaN  0.000000
  0.000000  0.000000  0.000000

  NaN  NaN  0.000000
  NaN  NaN  0.000000
  0.000000  0.000000  0.000000

  NaN  NaN  0.000000
  NaN  NaN  0.000000
  0.000000  0.000000  0.000000

  NaN  NaN  0.000000
  NaN  NaN  0.000000
  0.000000  0.000000  0.000000

  NaN  NaN  0.000000
  NaN  NaN  0.000000
  0.000000  0.000000  0.000000

  NaN  NaN  0.000000
  NaN  NaN  0.000000
  0.000000  0.000000  0.000000

  NaN  NaN  0.000000
  NaN  NaN  0.000000
  0.000000  0.000000  0.000000

  NaN  NaN  0.000000
  NaN  NaN  0.000000
  0.000000  0.000000  0.000000

  NaN  NaN  0.000000
  NaN  NaN  0.000000
  0.000000  0.000000  0.000000

  NaN  NaN  0.000000
  NaN  NaN  0.000000
  0.000000  0.000000  0.000000

  NaN  NaN  0.000000
  NaN  NaN  0.000000
  0.000000  0.000000  0.000000

  NaN  NaN  0.000000
  NaN  NaN  0.000000
  0.000000  0.000000  0.000000

  NaN  NaN  0.000000
  NaN  NaN  0.000000
  0.000000  0.000000  0.000000

  NaN  NaN  0.000000
  NaN  NaN  0.000000
  0.000000  0.000000  0.000000

  NaN  NaN  0.000000
  NaN  NaN  0.000000
  0.000000  0.000000  0.000000

  NaN  NaN  0.000000
  NaN  NaN  0.000000
  0.000000  0.000000  0.000000

  NaN  NaN  0.000000
  NaN  NaN  0.000000
  0.000000  0.000000  0.000000

  NaN  NaN  0.000000
  NaN  NaN  0.000000
  0.000000  0.000000  0.000000

  NaN  NaN  0.000000
  NaN  NaN  0.000000
  0.000000  0.000000  0.000000

  NaN  NaN  0.000000
  NaN  NaN  0.000000
  0.000000  0.000000  0.000000

  NaN  NaN  0.000000
  NaN  NaN  0.000000
  0.000000  0.000000  0.000000

  NaN  NaN  0.000000
  NaN  NaN  0.000000
  0.000000  0.000000  0.000000

  NaN  NaN  0.000000
  NaN  NaN  0.000000
  0.000000  0.000000  0.000000

  NaN  NaN  0.000000
  NaN  NaN  0.000000
  0.000000  0.000000  0.000000

  NaN  NaN  0.000000
  NaN  NaN  0.000000
  0.000000  0.000000  0.000000

  NaN  NaN  0.000000
  NaN  NaN  0.000000
  0.000000  0.000000  0.000000

  NaN  NaN  0.000000
  NaN  NaN  0.000000
  0.000000  0.000000  0.000000

  NaN  NaN  0.000000
  NaN  NaN  0.000000
  0.000000  0.000000  0.000000

  NaN  NaN  0.000000
  NaN  NaN  0.000000
  0.000000  0.000000  0.000000

  NaN  NaN  0.000000
  NaN  NaN  0.000000
  0.000000  0.000000  0.000000

  NaN  NaN  0.000000
  NaN  NaN  0.000000
  0.000000  0.000000  0.000000

  NaN  NaN  0.000000
  NaN  NaN  0.000000
  0.000000  0.000000  0.000000

  NaN  NaN  0.000000
  NaN  NaN  0.000000
  0.000000  0.000000  0.000000

  NaN  NaN  0.000000
  NaN  NaN  0.000000
  0.000000  0.000000  0.000000

  NaN  NaN  0.000000
  NaN  NaN  0.000000
  0.000000  0.000000  0.000000

  NaN  NaN  0.000000
  NaN  NaN  0.000000
  0.000000  0.000000  0.000000

  NaN  NaN  0.000000
  NaN  NaN  0.000000
  0.000000  0.000000  0.000000

  NaN  NaN  0.000000
  NaN  NaN  0.000000
  0.000000  0.000000  0.000000

  NaN  NaN  0.000000
  NaN  NaN  0.000000
  0.000000  0.000000  0.000000

  NaN  NaN  0.000000
  NaN  NaN  0.000000
  0.000000  0.000000  0.000000

  NaN  NaN  0.000000
  NaN  NaN  0.000000
  0.000000  0.000000  0.000000

  NaN  NaN  0.000000
  NaN  NaN  0.000000
  0.000000  0.000000  0.000000

  NaN  NaN  0.000000
  NaN  NaN  0.000000
  0.000000  0.000000  0.000000
POINT_DATA 201
VECTORS displacements double
  0.000000  0.000000  0.000000
  0.000000  0.000000  0.000000
  NaN  NaN  0.000000
  NaN  NaN  0.000000
  NaN  NaN  0.000000
  0.000000  0.000000  0.000000
  NaN  NaN  0.000000
  NaN  NaN  0.000000
  NaN  NaN  0.000000
  NaN  NaN  0.000000
  0.000000  0.000000  0.000000
  NaN  NaN  0.000000
  NaN  NaN  0.000000
  NaN  NaN  0.000000
  NaN  NaN  0.000000
  NaN  NaN  0.000000
  0.000000  0.000000  0.000000
  NaN  NaN  0.000000
  NaN  NaN  0.000000
  NaN  NaN  0.000000
  NaN  NaN  0.000000
  NaN  NaN  0.000000
  NaN  NaN  0.000000
  NaN  NaN  0.000000
  0.000000  0.000000  0.000000
  NaN  NaN  0.000000
  NaN  NaN  0.000000
  NaN  NaN  0.000000
  NaN  NaN  0.000000
  NaN  NaN  0.000000
  NaN  NaN  0.000000
  NaN  NaN  0.000000
  NaN  NaN  0.000000
  NaN  NaN  0.000000
  0.000000  0.000000  0.000000
  NaN  NaN  0.000000
  NaN  NaN  0.000000
  NaN  NaN  0.000000
  NaN  NaN  0.000000
  NaN  NaN  0.000000
  NaN  NaN  0.000000
  NaN  NaN  0.000000
  NaN  NaN  0.000000
  NaN  NaN  0.000000
  NaN  NaN  0.000000
  NaN  NaN  0.000000
  NaN  NaN  0.000000
  0.000000  0.000000  0.000000
  NaN  NaN  0.000000
  NaN  NaN  0.000000
  NaN  NaN  0.000000
  NaN  NaN  0.000000
  NaN  NaN  0.000000
  NaN  NaN  0.000000
  NaN  NaN  0.000000
  NaN  NaN  0.000000
  NaN  NaN  0.000000
  NaN  NaN  0.000000
  NaN  NaN  0.000000
  NaN  NaN  0.000000
  0.000000  0.000000  0.000000
  NaN  NaN  0.000000
  NaN  NaN  0.000000
  NaN  NaN  0.000000
  NaN  NaN  0.000000
  NaN  NaN  0.000000
  NaN  NaN  0.000000
  NaN  NaN  0.000000
  NaN  NaN  0.000000
  NaN  NaN  0.000000
  NaN  NaN  0.000000
  NaN  NaN  0.000000
  NaN  NaN  0.000000
  NaN  NaN  0.000000
  0.000000  0.000000  0.000000
  NaN  NaN  0.000000
  NaN  NaN  0.000000
  NaN  NaN  0.000000
  NaN  NaN  0.000000
  NaN  NaN  0.000000
  NaN  NaN  0.000000
  NaN  NaN  0.000000
  NaN  NaN  0.000000
  NaN  NaN  0.000000
  NaN  NaN  0.000000
  NaN  NaN  0.000000
  NaN  NaN  0.000000
  NaN  NaN  0.000000
  NaN  NaN  0.000000
  NaN  NaN  0.000000
  NaN  NaN  0.000000
  NaN  NaN  0.000000
  NaN  NaN  0.000000
  NaN  NaN  0.000000
  NaN  NaN  0.000000
  NaN  NaN  0.000000
  NaN  NaN  0.000000
  NaN  NaN  0.000000
  NaN  NaN  0.000000
  NaN  NaN  0.000000
  NaN  NaN  0.000000
  NaN  NaN  0.000000
  NaN  NaN  0.000000
  NaN  NaN  0.000000
  NaN  NaN  0.000000
  NaN  NaN  0.000000
  NaN  NaN  0.000000
  NaN  NaN  0.000000
  NaN  NaN  0.000000
  NaN  NaN  0.000000
  NaN  NaN  0.000000
  NaN  NaN  0.000000
  NaN  NaN  0.000000
  NaN  NaN  0.000000
  NaN  NaN  0.000000
  NaN  NaN  0.000000
  NaN  NaN  0.000000
  NaN  NaN  0.000000
  NaN  NaN  0.000000
  NaN  NaN  0.000000
  NaN  NaN  0.000000
  NaN  NaN  0.000000
  NaN  NaN  0.000000
  NaN  NaN  0.000000
  NaN  NaN  0.000000
  NaN  NaN  0.000000
  NaN  NaN  0.000000
  NaN  NaN  0.000000
  NaN  NaN  0.000000
  NaN  NaN  0.000000
  NaN  NaN  0.000000
  NaN  NaN  0.000000
  NaN  NaN  0.000000
  NaN  NaN  0.000000
  NaN  NaN  0.000000
  NaN  NaN  0.000000
  NaN  NaN  0.000000
  NaN  NaN  0.000000
  NaN  NaN  0.000000
  NaN  NaN  0.000000
  NaN  NaN  0.000000
  NaN  NaN  0.000000
  NaN  NaN  0.000000
  NaN  NaN  0.000000
  NaN  NaN  0.000000
  NaN  NaN  0.000000
  NaN  NaN  0.000000
  NaN  NaN  0.000000
  NaN  NaN  0.000000
  NaN  NaN  0.000000
  NaN  NaN  0.000000
  NaN  NaN  0.000000
  NaN  NaN  0.000000
  NaN  NaN  0.000000
  NaN  NaN  0.000000
  NaN  NaN  0.000000
  NaN  NaN  0.000000
  NaN  NaN  0.000000
  NaN  NaN  0.000000
  NaN  NaN  0.000000
  NaN  NaN  0.000000
  NaN  NaN  0.000000
  NaN  NaN  0.000000
  NaN  NaN  0.000000
  NaN  NaN  0.000000
  NaN  NaN  0.000000
  NaN  NaN  0.000000
  NaN  NaN  0.000000
  NaN  NaN  0.000000
  NaN  NaN  0.000000
  NaN  NaN  0.000000
  NaN  NaN  0.000000
  NaN  NaN  0.000000
  NaN  NaN  0.000000
  NaN  NaN  0.000000
  NaN  NaN  0.000000
  NaN  NaN  0.000000
  NaN  NaN  0.000000
  NaN  NaN  0.000000
  NaN  NaN  0.000000
  NaN  NaN  0.000000
  NaN  NaN  0.000000
  NaN  NaN  0.000000
  NaN  NaN  0.000000
  NaN  NaN  0.000000
  NaN  NaN  0.000000
  NaN  NaN  0.000000
  NaN  NaN  0.000000
  NaN  NaN  0.000000
  NaN  NaN  0.000000
  NaN  NaN  0.000000
  NaN  NaN  0.000000
  NaN  NaN  0.000000
  NaN  NaN  0.000000
  NaN  NaN  0.000000
  NaN  NaN  0.000000
  NaN  NaN  0.000000
  NaN  NaN  0.000000
  NaN  NaN  0.000000
  NaN  NaN  0.000000
  NaN  NaN  0.000000

CELL_DATA 346
TENSORS stress double
  NaN  NaN  0.000000
  NaN  NaN  0.000000
  0.000000  0.000000  0.000000


  NaN  NaN  0.000000
  NaN  NaN  0.000000
  0.000000  0.000000  0.000000


  NaN  NaN  0.000000
  NaN  NaN  0.000000
  0.000000  0.000000  0.000000


  NaN  NaN  0.000000
  NaN  NaN  0.000000
  0.000000  0.000000  0.000000


  NaN  NaN  0.000000
  NaN  NaN  0.000000
  0.000000  0.000000  0.000000


  NaN  NaN  0.000000
  NaN  NaN  0.000000
  0.000000  0.000000  0.000000


  NaN  NaN  0.000000
  NaN  NaN  0.000000
  0.000000  0.000000  0.000000


  NaN  NaN  0.000000
  NaN  NaN  0.000000
  0.000000  0.000000  0.000000


  NaN  NaN  0.000000
  NaN  NaN  0.000000
  0.000000  0.000000  0.000000


  NaN  NaN  0.000000
  NaN  NaN  0.000000
  0.000000  0.000000  0.000000


  NaN  NaN  0.000000
  NaN  NaN  0.000000
  0.000000  0.000000  0.000000


  NaN  NaN  0.000000
  NaN  NaN  0.000000
  0.000000  0.000000  0.000000


  NaN  NaN  0.000000
  NaN  NaN  0.000000
  0.000000  0.000000  0.000000


  NaN  NaN  0.000000
  NaN  NaN  0.000000
  0.000000  0.000000  0.000000


  NaN  NaN  0.000000
  NaN  NaN  0.000000
  0.000000  0.000000  0.000000


  NaN  NaN  0.000000
  NaN  NaN  0.000000
  0.000000  0.000000  0.000000


  NaN  NaN  0.000000
  NaN  NaN  0.000000
  0.000000  0.000000  0.000000


  NaN  NaN  0.000000
  NaN  NaN  0.000000
  0.000000  0.000000  0.000000


  NaN  NaN  0.000000
  NaN  NaN  0.000000
  0.000000  0.000000  0.000000


  NaN  NaN  0.000000
  NaN  NaN  0.000000
  0.000000  0.000000  0.000000


  NaN  NaN  0.000000
  NaN  NaN  0.000000
  0.000000  0.000000  0.000000


  NaN  NaN  0.000000
  NaN  NaN  0.000000
  0.000000  0.000000  0.000000


  NaN  NaN  0.000000
  NaN  NaN  0.000000
  0.000000  0.000000  0.000000


  NaN  NaN  0.000000
  NaN  NaN  0.000000
  0.000000  0.000000  0.000000


  NaN  NaN  0.000000
  NaN  NaN  0.000000
  0.000000  0.000000  0.000000


  NaN  NaN  0.000000
  NaN  NaN  0.000000
  0.000000  0.000000  0.000000


  NaN  NaN  0.000000
  NaN  NaN  0.000000
  0.000000  0.000000  0.000000


  NaN  NaN  0.000000
  NaN  NaN  0.000000
  0.000000  0.000000  0.000000


  NaN  NaN  0.000000
  NaN  NaN  0.000000
  0.000000  0.000000  0.000000


  NaN  NaN  0.000000
  NaN  NaN  0.000000
  0.000000  0.000000  0.000000


  NaN  NaN  0.000000
  NaN  NaN  0.000000
  0.000000  0.000000  0.000000


  NaN  NaN  0.000000
  NaN  NaN  0.000000
  0.000000  0.000000  0.000000


  NaN  NaN  0.000000
  NaN  NaN  0.000000
  0.000000  0.000000  0.000000


  NaN  NaN  0.000000
  NaN  NaN  0.000000
  0.000000  0.000000  0.000000


  NaN  NaN  0.000000
  NaN  NaN  0.000000
  0.000000  0.000000  0.000000


  NaN  NaN  0.000000
  NaN  NaN  0.000000
  0.000000  0.000000  0.000000


  NaN  NaN  0.000000
  NaN  NaN  0.000000
  0.000000  0.000000  0.000000


  NaN  NaN  0.000000
  NaN  NaN  0.000000
  0.000000  0.000000  0.000000


  NaN  NaN  0.000000
  NaN  NaN  0.000000
  0.000000  0.000000  0.000000


  NaN  NaN  0.000000
  NaN  NaN  0.000000
  0.000000  0.000000  0.000000


  NaN  NaN  0.000000
  NaN  NaN  0.000000
  0.000000  0.000000  0.000000


  NaN  NaN  0.000000
  NaN  NaN  0.000000
  0.000000  0.000000  0.000000


  NaN  NaN  0.000000
  NaN  NaN  0.000000
  0.000000  0.000000  0.000000


  NaN  NaN  0.000000
  NaN  NaN  0.000000
  0.000000  0.000000  0.000000


  NaN  NaN  0.000000
  NaN  NaN  0.000000
  0.000000  0.000000  0.000000


  NaN  NaN  0.000000
  NaN  NaN  0.000000
  0.000000  0.000000  0.000000


  NaN  NaN  0.000000
  NaN  NaN  0.000000
  0.000000  0.000000  0.000000


  NaN  NaN  0.000000
  NaN  NaN  0.000000
  0.000000  0.000000  0.000000


  NaN  NaN  0.000000
  NaN  NaN  0.000000
  0.000000  0.000000  0.000000


  NaN  NaN  0.000000
  NaN  NaN  0.000000
  0.000000  0.000000  0.000000


  NaN  NaN  0.000000
  NaN  NaN  0.000000
  0.000000  0.000000  0.000000


  NaN  NaN  0.000000
  NaN  NaN  0.000000
  0.000000  0.000000  0.000000


  NaN  NaN  0.000000
  NaN  NaN  0.000000
  0.000000  0.000000  0.000000


  NaN  NaN  0.000000
  NaN  NaN  0.000000
  0.000000  0.000000  0.000000


  NaN  NaN  0.000000
  NaN  NaN  0.000000
  0.000000  0.000000  0.000000


  NaN  NaN  0.000000
  NaN  NaN  0.000000
  0.000000  0.000000  0.000000


  NaN  NaN  0.000000
  NaN  NaN  0.000000
  0.000000  0.000000  0.000000


  NaN  NaN  0.000000
  NaN  NaN  0.000000
  0.000000  0.000000  0.000000


  NaN  NaN  0.000000
  NaN  NaN  0.000000
  0.000000  0.000000  0.000000


  NaN  NaN  0.000000
  NaN  NaN  0.000000
  0.000000  0.000000  0.000000


  NaN  NaN  0.000000
  NaN  NaN  0.000000
  0.000000  0.000000  0.000000


  NaN  NaN  0.000000
  NaN  NaN  0.000000
  0.000000  0.000000  0.000000


  NaN  NaN  0.000000
  NaN  NaN  0.000000
  0.000000  0.000000  0.000000


  NaN  NaN  0.000000
  NaN  NaN  0.000000
  0.000000  0.000000  0.000000


  NaN  NaN  0.000000
  NaN  NaN  0.000000
  0.000000  0.000000  0.000000


  NaN  NaN  0.000000
  NaN  NaN  0.000000
  0.000000  0.000000  0.000000


  NaN  NaN  0.000000
  NaN  NaN  0.000000
  0.000000  0.000000  0.000000


  NaN  NaN  0.000000
  NaN  NaN  0.000000
  0.000000  0.000000  0.000000


  NaN  NaN  0.000000
  NaN  NaN  0.000000
  0.000000  0.000000  0.000000


  NaN  NaN  0.000000
  NaN  NaN  0.000000
  0.000000  0.000000  0.000000


  NaN  NaN  0.000000
  NaN  NaN  0.000000
  0.000000  0.000000  0.000000


  NaN  NaN  0.000000
  NaN  NaN  0.000000
  0.000000  0.000000  0.000000


  NaN  NaN  0.000000
  NaN  NaN  0.000000
  0.000000  0.000000  0.000000


  NaN  NaN  0.000000
  NaN  NaN  0.000000
  0.000000  0.000000  0.000000


  NaN  NaN  0.000000
  NaN  NaN  0.000000
  0.000000  0.000000  0.000000


  NaN  NaN  0.000000
  NaN  NaN  0.000000
  0.000000  0.000000  0.000000


  NaN  NaN  0.000000
  NaN  NaN  0.000000
  0.000000  0.000000  0.000000


  NaN  NaN  0.000000
  NaN  NaN  0.000000
  0.000000  0.000000  0.000000


  NaN  NaN  0.000000
  NaN  NaN  0.000000
  0.000000  0.000000  0.000000


  NaN  NaN  0.000000
  NaN  NaN  0.000000
  0.000000  0.000000  0.000000


  NaN  NaN  0.000000
  NaN  NaN  0.000000
  0.000000  0.000000  0.000000


  NaN  NaN  0.000000
  NaN  NaN  0.000000
  0.000000  0.000000  0.000000


  NaN  NaN  0.000000
  NaN  NaN  0.000000
  0.000000  0.000000  0.000000


  NaN  NaN  0.000000
  NaN  NaN  0.000000
  0.000000  0.000000  0.000000


  NaN  NaN  0.000000
  NaN  NaN  0.000000
  0.000000  0.000000  0.000000


  NaN  NaN  0.000000
  NaN  NaN  0.000000
  0.000000  0.000000  0.000000


  NaN  NaN  0.000000
  NaN  NaN  0.000000
  0.000000  0.000000  0.000000


  NaN  NaN  0.000000
  NaN  NaN  0.000000
  0.000000  0.000000  0.000000


  NaN  NaN  0.000000
  NaN  NaN  0.000000
  0.000000  0.000000  0.000000


  NaN  NaN  0.000000
  NaN  NaN  0.000000
  0.000000  0.000000  0.000000


  NaN  NaN  0.000000
  NaN  NaN  0.000000
  0.000000  0.000000  0.000000


  NaN  NaN  0.000000
  NaN  NaN  0.000000
  0.000000  0.000000  0.000000


  NaN  NaN  0.000000
  NaN  NaN  0.000000
  0.000000  0.000000  0.000000


  NaN  NaN  0.000000
  NaN  NaN  0.000000
  0.000000  0.000000  0.000000


  NaN  NaN  0.000000
  NaN  NaN  0.000000
  0.000000  0.000000  0.000000


  NaN  NaN  0.000000
  NaN  NaN  0.000000
  0.000000  0.000000  0.000000


  NaN  NaN  0.000000
  NaN  NaN  0.000000
  0.000000  0.000000  0.000000


  NaN  NaN  0.000000
  NaN  NaN  0.000000
  0.000000  0.000000  0.000000


  NaN  NaN  0.000000
  NaN  NaN  0.000000
  0.000000  0.000000  0.000000


  NaN  NaN  0.000000
  NaN  NaN  0.000000
  0.000000  0.000000  0.000000


  NaN  NaN  0.000000
  NaN  NaN  0.000000
  0.000000  0.000000  0.000000


  NaN  NaN  0.000000
  NaN  NaN  0.000000
  0.000000  0.000000  0.000000


  NaN  NaN  0.000000
  NaN  NaN  0.000000
  0.000000  0.000000  0.000000


  NaN  NaN  0.000000
  NaN  NaN  0.000000
  0.000000  0.000000  0.000000


  NaN  NaN  0.000000
  NaN  NaN  0.000000
  0.000000  0.000000  0.000000


  NaN  NaN  0.000000
  NaN  NaN  0.000000
  0.000000  0.000000  0.000000


  NaN  NaN  0.000000
  NaN  NaN  0.000000
  0.000000  0.000000  0.000000


  NaN  NaN  0.000000
  NaN  NaN  0.000000
  0.000000  0.000000  0.000000


  NaN  NaN  0.000000
  NaN  NaN  0.000000
  0.000000  0.000000  0.000000


  NaN  NaN  0.000000
  NaN  NaN  0.000000
  0.000000  0.000000  0.000000


  NaN  NaN  0.000000
  NaN  NaN  0.000000
  0.000000  0.000000  0.000000


  NaN  NaN  0.000000
  NaN  NaN  0.000000
  0.000000  0.000000  0.000000


  NaN  NaN  0.000000
  NaN  NaN  0.000000
  0.000000  0.000000  0.000000


  NaN  NaN  0.000000
  NaN  NaN  0.000000
  0.000000  0.000000  0.000000


  NaN  NaN  0.000000
  NaN  NaN  0.000000
  0.000000  0.000000  0.000000


  NaN  NaN  0.000000
  NaN  NaN  0.000000
  0.000000  0.000000  0.000000


  NaN  NaN  0.000000
  NaN  NaN  0.000000
  0.000000  0.000000  0.000000


  NaN  NaN  0.000000
  NaN  NaN  0.000000
  0.000000  0.000000  0.000000


  NaN  NaN  0.000000
  NaN  NaN  0.000000
  0.000000  0.000000  0.000000


  NaN  NaN  0.000000
  NaN  NaN  0.000000
  0.000000  0.000000  0.000000


  NaN  NaN  0.000000
  NaN  NaN  0.000000
  0.000000  0.000000  0.000000


  NaN  NaN  0.000000
  NaN  NaN  0.000000
  0.000000  0.000000  0.000000


  NaN  NaN  0.000000
  NaN  NaN  0.000000
  0.000000  0.000000  0.000000


  NaN  NaN  0.000000
  NaN  NaN  0.000000
  0.000000  0.000000  0.000000


  NaN  NaN  0.000000
  NaN  NaN  0.000000
  0.000000  0.000000  0.000000


  NaN  NaN  0.000000
  NaN  NaN  0.000000
  0.000000  0.000000  0.000000


  NaN  NaN  0.000000
  NaN  NaN  0.000000
  0.000000  0.000000  0.000000


  NaN  NaN  0.000000
  NaN  NaN  0.000000
  0.000000  0.000000  0.000000


  NaN  NaN  0.000000
  NaN  NaN  0.000000
  0.000000  0.000000  0.000000


  NaN  NaN  0.000000
  NaN  NaN  0.000000
  0.000000  0.000000  0.000000


  NaN  NaN  0.000000
  NaN  NaN  0.000000
  0.000000  0.000000  0.000000


  NaN  NaN  0.000000
  NaN  NaN  0.000000
  0.000000  0.000000  0.000000


  NaN  NaN  0.000000
  NaN  NaN  0.000000
  0.000000  0.000000  0.000000


  NaN  NaN  0.000000
  NaN  NaN  0.000000
  0.000000  0.000000  0.000000


  NaN  NaN  0.000000
  NaN  NaN  0.000000
  0.000000  0.000000  0.000000


  NaN  NaN  0.000000
  NaN  NaN  0.000000
  0.000000  0.000000  0.000000


  NaN  NaN  0.000000
  NaN  NaN  0.000000
  0.000000  0.000000  0.000000


  NaN  NaN  0.000000
  NaN  NaN  0.000000
  0.000000  0.000000  0.000000


  NaN  NaN  0.000000
  NaN  NaN  0.000000
  0.000000  0.000000  0.000000


  NaN  NaN  0.000000
  NaN  NaN  0.000000
  0.000000  0.000000  0.000000


  NaN  NaN  0.000000
  NaN  NaN  0.000000
  0.000000  0.000000  0.000000


  NaN  NaN  0.000000
  NaN  NaN  0.000000
  0.000000  0.000000  0.000000


  NaN  NaN  0.000000
  NaN  NaN  0.000000
  0.000000  0.000000  0.000000


  NaN  NaN  0.000000
  NaN  NaN  0.000000
  0.000000  0.000000  0.000000


  NaN  NaN  0.000000
  NaN  NaN  0.000000
  0.000000  0.000000  0.000000


  NaN  NaN  0.000000
  NaN  NaN  0.000000
  0.000000  0.000000  0.000000


  NaN  NaN  0.000000
  NaN  NaN  0.000000
  0.000000  0.000000  0.000000


  NaN  NaN  0.000000
  NaN  NaN  0.000000
  0.000000  0.000000  0.000000


  NaN  NaN  0.000000
  NaN  NaN  0.000000
  0.000000  0.000000  0.000000


  NaN  NaN  0.000000
  NaN  NaN  0.000000
  0.000000  0.000000  0.000000


  NaN  NaN  0.000000
  NaN  NaN  0.000000
  0.000000  0.000000  0.000000


  NaN  NaN  0.000000
  NaN  NaN  0.000000
  0.000000  0.000000  0.000000


  NaN  NaN  0.000000
  NaN  NaN  0.000000
  0.000000  0.000000  0.000000


  NaN  NaN  0.000000
  NaN  NaN  0.000000
  0.000000  0.000000  0.000000


  NaN  NaN  0.000000
  NaN  NaN  0.000000
  0.000000  0.000000  0.000000


  NaN  NaN  0.000000
  NaN  NaN  0.000000
  0.000000  0.000000  0.000000


  NaN  NaN  0.000000
  NaN  NaN  0.000000
  0.000000  0.000000  0.000000


  NaN  NaN  0.000000
  NaN  NaN  0.000000
  0.000000  0.000000  0.000000


  NaN  NaN  0.000000
  NaN  NaN  0.000000
  0.000000  0.000000  0.000000


  NaN  NaN  0.000000
  NaN  NaN  0.000000
  0.000000  0.000000  0.000000


  NaN  NaN  0.000000
  NaN  NaN  0.000000
  0.000000  0.000000  0.000000


  NaN  NaN  0.000000
  NaN  NaN  0.000000
  0.000000  0.000000  0.000000


  NaN  NaN  0.000000
  NaN  NaN  0.000000
  0.000000  0.000000  0.000000


  NaN  NaN  0.000000
  NaN  NaN  0.000000
  0.000000  0.000000  0.000000


  NaN  NaN  0.000000
  NaN  NaN  0.000000
  0.000000  0.000000  0.000000


  NaN  NaN  0.000000
  NaN  NaN  0.000000
  0.000000  0.000000  0.000000


  NaN  NaN  0.000000
  NaN  NaN  0.000000
  0.000000  0.000000  0.000000


  NaN  NaN  0.000000
  NaN  NaN  0.000000
  0.000000  0.000000  0.000000


  NaN  NaN  0.000000
  NaN  NaN  0.000000
  0.000000  0.000000  0.000000


  NaN  NaN  0.000000
  NaN  NaN  0.000000
  0.000000  0.000000  0.000000


  NaN  NaN  0.000000
  NaN  NaN  0.000000
  0.000000  0.000000  0.000000


  NaN  NaN  0.000000
  NaN  NaN  0.000000
  0.000000  0.000000  0.000000


  NaN  NaN  0.000000
  NaN  NaN  0.000000
  0.000000  0.000000  0.000000


  NaN  NaN  0.000000
  NaN  NaN  0.000000
  0.000000  0.000000  0.000000


  NaN  NaN  0.000000
  NaN  NaN  0.000000
  0.000000  0.000000  0.000000


  NaN  NaN  0.000000
  NaN  NaN  0.000000
  0.000000  0.000000  0.000000


  NaN  NaN  0.000000
  NaN  NaN  0.000000
  0.000000  0.000000  0.000000


  NaN  NaN  0.000000
  NaN  NaN  0.000000
  0.000000  0.000000  0.000000


  NaN  NaN  0.000000
  NaN  NaN  0.000000
  0.000000  0.000000  0.000000


  NaN  NaN  0.000000
  NaN  NaN  0.000000
  0.000000  0.000000  0.000000


  NaN  NaN  0.000000
  NaN  NaN  0.000000
  0.000000  0.000000  0.000000


  NaN  NaN  0.000000
  NaN  NaN  0.000000
  0.000000  0.000000  0.000000


  NaN  NaN  0.000000
  NaN  NaN  0.000000
  0.000000  0.000000  0.000000


  NaN  NaN  0.000000
  NaN  NaN  0.000000
  0.000000  0.000000  0.000000


  NaN  NaN  0.000000
  NaN  NaN  0.000000
  0.000000  0.000000  0.000000


  NaN  NaN  0.000000
  NaN  NaN  0.000000
  0.000000  0.000000  0.000000


  NaN  NaN  0.000000
  NaN  NaN  0.000000
  0.000000  0.000000  0.000000


  NaN  NaN  0.000000
  NaN  NaN  0.000000
  0.000000  0.000000  0.000000


  NaN  NaN  0.000000
  NaN  NaN  0.000000
  0.000000  0.000000  0.000000


  NaN  NaN  0.000000
  NaN  NaN  0.000000
  0.000000  0.000000  0.000000


  NaN  NaN  0.000000
  NaN  NaN  0.000000
  0.000000  0.000000  0.000000


  NaN  NaN  0.000000
  NaN  NaN  0.000000
  0.000000  0.000000  0.000000


  NaN  NaN  0.000000
  NaN  NaN  0.000000
  0.000000  0.000000  0.000000


  NaN  NaN  0.000000
  NaN  NaN  0.000000
  0.000000  0.000000  0.000000


  NaN  NaN  0.000000
  NaN  NaN  0.000000
  0.000000  0.000000  0.000000


  NaN  NaN  0.000000
  NaN  NaN  0.000000
  0.000000  0.000000  0.000000


  NaN  NaN  0.000000
  NaN  NaN  0.000000
  0.000000  0.000000  0.000000


  NaN  NaN  0.000000
  NaN  NaN  0.000000
  0.000000  0.000000  0.000000


  NaN  NaN  0.000000
  NaN  NaN  0.000000
  0.000000  0.000000  0.000000


  NaN  NaN  0.000000
  NaN  NaN  0.000000
  0.000000  0.000000  0.000000


  NaN  NaN  0.000000
  NaN  NaN  0.000000
  0.000000  0.000000  0.000000


  NaN  NaN  0.000000
  NaN  NaN  0.000000
  0.000000  0.000000  0.000000


  NaN  NaN  0.000000
  NaN  NaN  0.000000
  0.000000  0.000000  0.000000


  NaN  NaN  0.000000
  NaN  NaN  0.000000
  0.000000  0.000000  0.000000


  NaN  NaN  0.000000
  NaN  NaN  0.000000
  0.000000  0.000000  0.000000


  NaN  NaN  0.000000
  NaN  NaN  0.000000
  0.000000  0.000000  0.000000


  NaN  NaN  0.000000
  NaN  NaN  0.000000
  0.000000  0.000000  0.000000


  NaN  NaN  0.000000
  NaN  NaN  0.000000
  0.000000  0.000000  0.000000


  NaN  NaN  0.000000
  NaN  NaN  0.000000
  0.000000  0.000000  0.000000


  NaN  NaN  0.000000
  NaN  NaN  0.000000
  0.000000  0.000000  0.000000


  NaN  NaN  0.000000
  NaN  NaN  0.000000
  0.000000  0.000000  0.000000


  NaN  NaN  0.000000
  NaN  NaN  0.000000
  0.000000  0.000000  0.000000


  NaN  NaN  0.000000
  NaN  NaN  0.000000
  0.000000  0.000000  0.000000


  NaN  NaN  0.000000
  NaN  NaN  0.000000
  0.000000  0.000000  0.000000


  NaN  NaN  0.000000
  NaN  NaN  0.000000
  0.000000  0.000000  0.000000


  NaN  NaN  0.000000
  NaN  NaN  0.000000
  0.000000  0.000000  0.000000


  NaN  NaN  0.000000
  NaN  NaN  0.000000
  0.000000  0.000000  0.000000


  NaN  NaN  0.000000
  NaN  NaN  0.000000
  0.000000  0.000000  0.000000


  NaN  NaN  0.000000
  NaN  NaN  0.000000
  0.000000  0.000000  0.000000


  NaN  NaN  0.000000
  NaN  NaN  0.000000
  0.000000  0.000000  0.000000


  NaN  NaN  0.000000
  NaN  NaN  0.000000
  0.000000  0.000000  0.000000


  NaN  NaN  0.000000
  NaN  NaN  0.000000
  0.000000  0.000000  0.000000


  NaN  NaN  0.000000
  NaN  NaN  0.000000
  0.000000  0.000000  0.000000


  NaN  NaN  0.000000
  NaN  NaN  0.000000
  0.000000  0.000000  0.000000


  NaN  NaN  0.000000
  NaN  NaN  0.000000
  0.000000  0.000000  0.000000


  NaN  NaN  0.000000
  NaN  NaN  0.000000
  0.000000  0.000000  0.000000


  NaN  NaN  0.000000
  NaN  NaN  0.000000
  0.000000  0.000000  0.000000


  NaN  NaN  0.000000
  NaN  NaN  0.000000
  0.000000  0.000000  0.000000


  NaN  NaN  0.000000
  NaN  NaN  0.000000
  0.000000  0.000000  0.000000


  NaN  NaN  0.000000
  NaN  NaN  0.000000
  0.000000  0.000000  0.000000


  NaN  NaN  0.000000
  NaN  NaN  0.000000
  0.000000  0.000000  0.000000


  NaN  NaN  0.000000
  NaN  NaN  0.000000
  0.000000  0.000000  0.000000


  NaN  NaN  0.000000
  NaN  NaN  0.000000
  0.000000  0.000000  0.000000


  NaN  NaN  0.000000
  NaN  NaN  0.000000
  0.000000  0.000000  0.000000


  NaN  NaN  0.000000
  NaN  NaN  0.000000
  0.000000  0.000000  0.000000


  NaN  NaN  0.000000
  NaN  NaN  0.000000
  0.000000  0.000000  0.000000


  NaN  NaN  0.000000
  NaN  NaN  0.000000
  0.000000  0.000000  0.000000


  NaN  NaN  0.000000
  NaN  NaN  0.000000
  0.000000  0.000000  0.000000


  NaN  NaN  0.000000
  NaN  NaN  0.000000
  0.000000  0.000000  0.000000


  NaN  NaN  0.000000
  NaN  NaN  0.000000
  0.000000  0.000000  0.000000


  NaN  NaN  0.000000
  NaN  NaN  0.000000
  0.000000  0.000000  0.000000


  NaN  NaN  0.000000
  NaN  NaN  0.000000
  0.000000  0.000000  0.000000


  NaN  NaN  0.000000
  NaN  NaN  0.000000
  0.000000  0.000000  0.000000


  NaN  NaN  0.000000
  NaN  NaN  0.000000
  0.000000  0.000000  0.000000


  NaN  NaN  0.000000
  NaN  NaN  0.000000
  0.000000  0.000000  0.000000


  NaN  NaN  0.000000
  NaN  NaN  0.000000
  0.000000  0.000000  0.000000


  NaN  NaN  0.000000
  NaN  NaN  0.000000
  0.000000  0.000000  0.000000


  NaN  NaN  0.000000
  NaN  NaN  0.000000
  0.000000  0.000000  0.000000


  NaN  NaN  0.000000
  NaN  NaN  0.000000
  0.000000  0.000000  0.000000


  NaN  NaN  0.000000
  NaN  NaN  0.000000
  0.000000  0.000000  0.000000


  NaN  NaN  0.000000
  NaN  NaN  0.000000
  0.000000  0.000000  0.000000


  NaN  NaN  0.000000
  NaN  NaN  0.000000
  0.000000  0.000000  0.000000


  NaN  NaN  0.000000
  NaN  NaN  0.000000
  0.000000  0.000000  0.000000


  NaN  NaN  0.000000
  NaN  NaN  0.000000
  0.000000  0.000000  0.000000


  NaN  NaN  0.000000
  NaN  NaN  0.000000
  0.000000  0.000000  0.000000


  NaN  NaN  0.000000
  NaN  NaN  0.000000
  0.000000  0.000000  0.000000


  NaN  NaN  0.000000
  NaN  NaN  0.000000
  0.000000  0.000000  0.000000


  NaN  NaN  0.000000
  NaN  NaN  0.000000
  0.000000  0.000000  0.000000


  NaN  NaN  0.000000
  NaN  NaN  0.000000
  0.000000  0.000000  0.000000


  NaN  NaN  0.000000
  NaN  NaN  0.000000
  0.000000  0.000000  0.000000


  NaN  NaN  0.000000
  NaN  NaN  0.000000
  0.000000  0.000000  0.000000


  NaN  NaN  0.000000
  NaN  NaN  0.000000
  0.000000  0.000000  0.000000


  NaN  NaN  0.000000
  NaN  NaN  0.000000
  0.000000  0.000000  0.000000


  NaN  NaN  0.000000
  NaN  NaN  0.000000
  0.000000  0.000000  0.000000


  NaN  NaN  0.000000
  NaN  NaN  0.000000
  0.000000  0.000000  0.000000


  NaN  NaN  0.000000
  NaN  NaN  0.000000
  0.000000  0.000000  0.000000


  NaN  NaN  0.000000
  NaN  NaN  0.000000
  0.000000  0.000000  0.000000


  NaN  NaN  0.000000
  NaN  NaN  0.000000
  0.000000  0.000000  0.000000


  NaN  NaN  0.000000
  NaN  NaN  0.000000
  0.000000  0.000000  0.000000


  NaN  NaN  0.000000
  NaN  NaN  0.000000
  0.000000  0.000000  0.000000


  NaN  NaN  0.000000
  NaN  NaN  0.000000
  0.000000  0.000000  0.000000


  NaN  NaN  0.000000
  NaN  NaN  0.000000
  0.000000  0.000000  0.000000


  NaN  NaN  0.000000
  NaN  NaN  0.000000
  0.000000  0.000000  0.000000


  NaN  NaN  0.000000
  NaN  NaN  0.000000
  0.000000  0.000000  0.000000


  NaN  NaN  0.000000
  NaN  NaN  0.000000
  0.000000  0.000000  0.000000


  NaN  NaN  0.000000
  NaN  NaN  0.000000
  0.000000  0.000000  0.000000


  NaN  NaN  0.000000
  NaN  NaN  0.000000
  0.000000  0.000000  0.000000


  NaN  NaN  0.000000
  NaN  NaN  0.000000
  0.000000  0.000000  0.000000


  NaN  NaN  0.000000
  NaN  NaN  0.000000
  0.000000  0.000000  0.000000


  NaN  NaN  0.000000
  NaN  NaN  0.000000
  0.000000  0.000000  0.000000


  NaN  NaN  0.000000
  NaN  NaN  0.000000
  0.000000  0.000000  0.000000


  NaN  NaN  0.000000
  NaN  NaN  0.000000
  0.000000  0.000000  0.000000


  NaN  NaN  0.000000
  NaN  NaN  0.000000
  0.000000  0.000000  0.000000


  NaN  NaN  0.000000
  NaN  NaN  0.000000
  0.000000  0.000000  0.000000


  NaN  NaN  0.000000
  NaN  NaN  0.000000
  0.000000  0.000000  0.000000


  NaN  NaN  0.000000
  NaN  NaN  0.000000
  0.000000  0.000000  0.000000


  NaN  NaN  0.000000
  NaN  NaN  0.000000
  0.000000  0.000000  0.000000


  NaN  NaN  0.000000
  NaN  NaN  0.000000
  0.000000  0.000000  0.000000


  NaN  NaN  0.000000
  NaN  NaN  0.000000
  0.000000  0.000000  0.000000


  NaN  NaN  0.000000
  NaN  NaN  0.000000
  0.000000  0.000000  0.000000


  NaN  NaN  0.000000
  NaN  NaN  0.000000
  0.000000  0.000000  0.000000


  NaN  NaN  0.000000
  NaN  NaN  0.000000
  0.000000  0.000000  0.000000


  NaN  NaN  0.000000
  NaN  NaN  0.000000
  0.000000  0.000000  0.000000


  NaN  NaN  0.000000
  NaN  NaN  0.000000
  0.000000  0.000000  0.000000


  NaN  NaN  0.000000
  NaN  NaN  0.000000
  0.000000  0.000000  0.000000


  NaN  NaN  0.000000
  NaN  NaN  0.000000
  0.000000  0.000000  0.000000


  NaN  NaN  0.000000
  NaN  NaN  0.000000
  0.000000  0.000000  0.000000


  NaN  NaN  0.000000
  NaN  NaN  0.000000
  0.000000  0.000000  0.000000


  NaN  NaN  0.000000
  NaN  NaN  0.000000
  0.000000  0.000000  0.000000


  NaN  NaN  0.000000
  NaN  NaN  0.000000
  0.000000  0.000000  0.000000


  NaN  NaN  0.000000
  NaN  NaN  0.000000
  0.000000  0.000000  0.000000


  NaN  NaN  0.000000
  NaN  NaN  0.000000
  0.000000  0.000000  0.000000


  NaN  NaN  0.000000
  NaN  NaN  0.000000
  0.000000  0.000000  0.000000


  NaN  NaN  0.000000
  NaN  NaN  0.000000
  0.000000  0.000000  0.000000


  NaN  NaN  0.000000
  NaN  NaN  0.000000
  0.000000  0.000000  0.000000


  NaN  NaN  0.000000
  NaN  NaN  0.000000
  0.000000  0.000000  0.000000


  NaN  NaN  0.000000
  NaN  NaN  0.000000
  0.000000  0.000000  0.000000


  NaN  NaN  0.000000
  NaN  NaN  0.000000
  0.000000  0.000000  0.000000


  NaN  NaN  0.000000
  NaN  NaN  0.000000
  0.000000  0.000000  0.000000


  NaN  NaN  0.000000
  NaN  NaN  0.000000
  0.000000  0.000000  0.000000


  NaN  NaN  0.000000
  NaN  NaN  0.000000
  0.000000  0.000000  0.000000


  NaN  NaN  0.000000
  NaN  NaN  0.000000
  0.000000  0.000000  0.000000


  NaN  NaN  0.000000
  NaN  NaN  0.000000
  0.000000  0.000000  0.000000


  NaN  NaN  0.000000
  NaN  NaN  0.000000
  0.000000  0.000000  0.000000


  NaN  NaN  0.000000
  NaN  NaN  0.000000
  0.000000  0.000000  0.000000


  NaN  NaN  0.000000
  NaN  NaN  0.000000
  0.000000  0.000000  0.000000


  NaN  NaN  0.000000
  NaN  NaN  0.000000
  0.000000  0.000000  0.000000


  NaN  NaN  0.000000
  NaN  NaN  0.000000
  0.000000  0.000000  0.000000


  NaN  NaN  0.000000
  NaN  NaN  0.000000
  0.000000  0.000000  0.000000


  NaN  NaN  0.000000
  NaN  NaN  0.000000
  0.000000  0.000000  0.000000


  NaN  NaN  0.000000
  NaN  NaN  0.000000
  0.000000  0.000000  0.000000


  NaN  NaN  0.000000
  NaN  NaN  0.000000
  0.000000  0.000000  0.000000


  NaN  NaN  0.000000
  NaN  NaN  0.000000
  0.000000  0.000000  0.000000


  NaN  NaN  0.000000
  NaN  NaN  0.000000
  0.000000  0.000000  0.000000


  NaN  NaN  0.000000
  NaN  NaN  0.000000
  0.000000  0.000000  0.000000


  NaN  NaN  0.000000
  NaN  NaN  0.000000
  0.000000  0.000000  0.000000


  NaN  NaN  0.000000
  NaN  NaN  0.000000
  0.000000  0.000000  0.000000


  NaN  NaN  0.000000
  NaN  NaN  0.000000
  0.000000  0.000000  0.000000


  NaN  NaN  0.000000
  NaN  NaN  0.000000
  0.000000  0.000000  0.000000


  NaN  NaN  0.000000
  NaN  NaN  0.000000
  0.000000  0.000000  0.000000


  NaN  NaN  0.000000
  NaN  NaN  0.000000
  0.000000  0.000000  0.000000


  NaN  NaN  0.000000
  NaN  NaN  0.000000
  0.000000  0.000000  0.000000


  NaN  NaN  0.000000
  NaN  NaN  0.000000
  0.000000  0.000000  0.000000


  NaN  NaN  0.000000
  NaN  NaN  0.000000
  0.000000  0.000000  0.000000


  NaN  NaN  0.000000
  NaN  NaN  0.000000
  0.000000  0.000000  0.000000


  NaN  NaN  0.000000
  NaN  NaN  0.000000
  0.000000  0.000000  0.000000


  NaN  NaN  0.000000
  NaN  NaN  0.000000
  0.000000  0.000000  0.000000


  NaN  NaN  0.000000
  NaN  NaN  0.000000
  0.000000  0.000000  0.000000


  NaN  NaN  0.000000
  NaN  NaN  0.000000
  0.000000  0.000000  0.000000


  NaN  NaN  0.000000
  NaN  NaN  0.000000
  0.000000  0.000000  0.000000


  NaN  NaN  0.000000
  NaN  NaN  0.000000
  0.000000  0.000000  0.000000


  NaN  NaN  0.000000
  NaN  NaN  0.000000
  0.000000  0.000000  0.000000


  NaN  NaN  0.000000
  NaN  NaN  0.000000
  0.000000  0.000000  0.000000


  NaN  NaN  0.000000
  NaN  NaN  0.000000
  0.000000  0.000000  0.000000


  NaN  NaN  0.000000
  NaN  NaN  0.000000
  0.000000  0.000000  0.000000


  NaN  NaN  0.000000
  NaN  NaN  0.000000
  0.000000  0.000000  0.000000

